 # Version information for this restart file 
 # current date 2024-11-21 20:50:52.862
 # current working dir /scratch/work/courses/CHEM-GA-2671-2024fa/students/mr6966/comp-lab-class-2024-MR/Week12-IntroAIMD/Runs/Water
 # Program compiled at                              Sat Dec 12 18:27:15 EST 2020
 # Program compiled on                                         cs001.nyu.cluster
 # Program compiled for                                                nyu-intel
 # Source code revision number                                       git:8c64c6e
 &GLOBAL
   PRINT_LEVEL  LOW
   PROJECT_NAME water_aimd_1ns_every0.5fs
   RUN_TYPE  MD
   WALLTIME 21600
 &END GLOBAL
 &MOTION
   &GEO_OPT
     OPTIMIZER  BFGS
     MAX_ITER  100
     MAX_DR     3.0000000000000001E-03
     &BFGS
     &END BFGS
   &END GEO_OPT
   &MD
     ENSEMBLE  NVT
     STEPS  2000
     TIMESTEP     4.9999999999999994E-01
     STEP_START_VAL  217
     TIME_START_VAL     1.0850000000000009E+02
     ECONS_START_VAL    -1.1023558357480233E+03
     TEMPERATURE     3.0000000000000000E+02
     &THERMOSTAT
       TYPE  GLE
       REGION  MASSIVE
       &GLE
         NDIM  5
         A_SCALE     1.0000000000000000E+00
         A_LIST     1.8595758612559999E+02    2.7263853498399998E-01    1.1526100454610001E+01   -3.6414578262600003E+01 \
             2.3173375816020001E+02
         A_LIST    -2.7809524712060002E-01    8.5951591808710006E-05    7.2189048017650004E-01   -1.9844539343859999E-01 \
             4.2409257583420001E-01
         A_LIST    -1.4825808131210000E+01   -7.2189048017650004E-01    1.3590902121280000E+00    5.1498896280349999E+00 \
            -9.9949268450990001E+00
         A_LIST    -1.0372189126880000E+01    1.9844539343859999E-01   -5.1498896280349999E+00    2.6661910891169999E+01 \
             1.1507715495310000E+01
         A_LIST     2.1801346360420001E+02   -4.2409257583420001E-01    9.9949268450990001E+00   -1.1507715495310000E+01 \
             3.0958394565589998E+02
         &THERMOSTAT_ENERGY
              -3.1550650164629910E-03
               5.1971109947206769E-04
              -7.0860819447778381E-04
              -2.2852484681954552E-03
              -1.8179986709333725E-04
               2.5360366725024550E-03
              -4.2426592274810689E-03
               1.6334624992560363E-03
               6.4283602772205123E-03
              -5.6237753228182959E-04
               3.3326864923773755E-03
              -8.3066619841478133E-04
               6.0204153384981298E-04
              -3.8448875756407668E-05
               1.2348607115939315E-03
              -2.7175486453828767E-03
               4.6618555820063324E-03
              -3.9848040828122794E-04
               3.6433654840386989E-03
              -1.5837067621746854E-03
              -9.7253539018879985E-05
              -1.5558382651847041E-04
              -2.4941480427686860E-03
               2.7358864513462428E-03
              -2.4518639841550043E-03
              -2.9006870843672752E-03
               2.1190412680422285E-03
               1.7034774731137904E-03
               1.4011929013937855E-03
               5.4970361774434745E-04
              -4.0294074176406760E-03
               4.8810461130985918E-04
               7.6708166333981154E-04
               1.9392168520289252E-03
              -4.7639138776131721E-03
               3.8272630717455349E-03
              -6.9807813068900517E-04
               5.5687358219833934E-05
              -1.1359548425321753E-03
               2.6126955130912895E-03
              -9.8615029075567592E-04
              -4.1472957699593858E-03
              -1.3887418526108773E-03
               4.0004386021186998E-03
              -2.4316132612258170E-03
               1.5031295414173946E-03
              -1.2842553126541760E-03
              -7.2209178565489716E-04
              -2.2448137189105019E-03
              -1.1558261280970262E-03
               1.1164495197767998E-03
              -1.7650714834340476E-04
              -3.2090376343476877E-03
              -5.4795765245943063E-04
              -2.9532246843586045E-03
               4.2520480210464257E-04
               6.8419154476569784E-05
               1.7002371660838345E-03
               1.0961599567399483E-03
              -2.2372200614247189E-03
              -5.0400021887599914E-04
               4.6750088268324537E-03
              -1.6378300307160168E-03
              -9.5961524537559553E-04
              -1.4972864798580821E-03
               1.3113632507929891E-03
              -2.5990725596890737E-03
               2.5513278398055944E-03
              -1.5159610926365405E-03
               2.3851431424308546E-03
              -1.2623782071937426E-03
               1.0409032176714590E-04
              -9.5878256749426711E-04
               1.2009662231152593E-03
              -1.5583377166581915E-03
              -9.9853015026303625E-04
              -1.2477228090155769E-03
               2.0496921673185254E-03
               5.6883635860200598E-03
              -1.9971118963369155E-03
               1.9121763248349454E-04
              -1.4533593673920760E-03
              -1.1932202985287443E-03
              -1.4552699762037423E-03
               3.9081627165487454E-03
              -3.8320816643930592E-04
               2.5473843787761900E-04
               8.2654556342254628E-04
               1.2204599032581364E-04
               4.9481006888713909E-04
               2.7643982349328973E-03
              -3.3056773848272854E-03
               1.7535445703473801E-03
               1.9750461018793966E-04
              -3.6738910852990377E-03
               8.7317924121897391E-05
               4.2382608767564428E-04
               1.1090390330928548E-04
               2.2016360874256235E-03
               2.1401136551463841E-03
              -2.1549816575236149E-04
              -1.7961646356724277E-03
              -1.1538358469815266E-03
               1.6871613167168339E-04
               4.5765002683582972E-03
              -2.5710693140521016E-03
              -5.0059475034979872E-04
               9.7924212348046409E-04
               3.1456913964426191E-03
              -1.0808153363109940E-03
               5.2788424669086781E-03
               7.3574669600041563E-04
              -8.4963732193257520E-04
              -2.9995192834646515E-04
               2.6971548654663230E-03
               3.1774867193129688E-03
              -9.4133995844272456E-03
               1.2087846078801814E-03
               1.7229468196088484E-03
              -2.3797681793838812E-04
              -3.0315327890825735E-05
              -2.9367239749357931E-05
               1.8514659493425781E-03
              -1.3991491158449447E-03
              -6.8392222286270581E-03
               5.7867628358342451E-04
               1.2212153785544813E-03
               3.4802494532895044E-03
               9.1092082030697617E-04
               6.3688166523282505E-04
              -1.7142193569762625E-03
              -2.0216549925438660E-03
              -1.5004580919814471E-04
              -6.5252360735725719E-03
               1.4539711408024770E-03
              -1.0036850252009802E-03
              -3.9360985007262199E-03
              -2.2131192935065350E-03
               1.0632281117907798E-03
              -7.3995933611258939E-05
               3.4371355075979134E-03
               1.6583297102675081E-03
               1.0398906454204015E-03
               9.6674994980663789E-04
              -7.7422527554472454E-04
               3.3532362476728977E-04
               4.8098795583513369E-04
               1.4992802204348021E-03
              -2.0736992016250877E-03
               2.6322105485176903E-03
               1.0320216585333088E-03
               1.9140132201129244E-03
              -9.6224655362910387E-04
              -1.7009956543541098E-03
               5.9393274185363650E-04
              -8.5369555830778500E-05
               1.7940002750645818E-03
               2.9859796395424595E-03
              -1.2368960224906126E-03
               2.1773899648537386E-03
              -2.1420408484484825E-03
              -4.1338704697708182E-03
              -5.0291435233676927E-04
              -1.3189613970489408E-04
               1.3631039326309038E-03
               3.1501157745060940E-03
               1.7611729190289884E-03
              -3.2826795382761339E-04
              -5.8793992779568455E-03
               2.2721078863706958E-03
               3.0964203146327724E-04
              -2.3950726374930779E-04
               1.8152759137089493E-03
              -6.0889365407601492E-04
              -2.2119539361966458E-03
              -2.9326354452856567E-03
              -8.0633376217546229E-04
               5.3013179973422373E-03
              -1.0337770709538422E-03
               3.1220508243337093E-03
              -2.0662919162278931E-03
               7.7519687325037069E-04
               1.6490038666849721E-03
              -2.0877504732688843E-03
              -2.7831984407777587E-03
               2.5660311152049189E-04
              -1.1472523716206193E-03
               8.2930181505615273E-04
              -1.8528575023925855E-03
               1.2378406581678983E-03
               1.4970249842373299E-05
              -1.7496223180592354E-03
               3.8780173359260436E-03
              -3.5612451583587634E-03
               5.7268305076068021E-04
              -2.0669284704892673E-03
              -6.3143940777648361E-04
               1.9416824964282512E-04
              -2.7864911730124175E-04
              -1.4354886551293808E-04
               4.6510676309488547E-04
              -1.4461217743334046E-03
               2.0122554512297143E-03
               9.6397185673571893E-04
              -4.1995310221792873E-03
               2.4192937100436067E-03
              -8.2986817515013364E-04
               6.0717190685442976E-04
              -1.0380487172523501E-03
               3.5004577593941238E-03
              -2.7009461325924706E-04
              -3.7588440737603064E-04
               3.0812860648012259E-03
              -4.1876671933726607E-03
               4.9062720054597712E-03
               3.7341009789672816E-03
              -7.6101496997238167E-04
               1.5004923199299831E-03
              -3.6645435037044563E-03
              -2.2603377526999842E-03
               2.7273356825108456E-03
              -7.1646092479027337E-04
               2.2037096179099019E-03
               4.5345024667480785E-04
              -4.2493649468306675E-04
               3.1741233626426485E-04
              -7.8686510657227887E-04
               2.1596826396853516E-03
              -1.6562294968738640E-03
               2.7183754450078161E-03
              -2.4895900298899120E-03
               3.8493754118104555E-03
               7.7186536703334095E-04
               7.4144474553803101E-05
               2.5426009499475320E-03
               4.5238144559663177E-04
              -2.2798189940024900E-03
               1.3555193671205301E-03
              -4.9358345090243336E-04
               2.7300545127313283E-03
              -5.8181811328351604E-04
               2.2833505677673192E-03
              -9.7484600400003590E-04
               6.6044602507125884E-04
              -5.8195507703947104E-04
               1.0583569931454254E-03
              -3.4149836116410570E-04
              -7.2895980316882685E-04
               2.0620524398234474E-05
              -6.7013485356379383E-04
               2.9339561121981294E-04
               1.7270232906847955E-03
              -1.1887804044493478E-04
              -9.0865661711722080E-04
              -2.0940062537462070E-03
              -1.9207438513194779E-03
              -8.7750166051823336E-04
               1.4396973465070478E-04
               2.4079092774936388E-04
              -2.4870788006748430E-03
               4.3273554128679462E-03
               1.8589932399634868E-03
               2.1667015749798264E-03
               1.6867531211472470E-03
              -2.6961319282817680E-04
              -1.8890786944795797E-03
              -2.0593693589166499E-04
               6.7497139901117633E-04
               1.0705257387044426E-03
              -1.1414363794987443E-03
              -1.0580108806108504E-03
              -1.0800782779616855E-03
               8.3412380717367771E-04
              -3.8996914095355172E-04
               1.8580491564124811E-03
               1.3317744359188810E-03
              -6.8728022940919530E-03
              -8.1749749452845457E-04
               1.3136409719383788E-03
               8.9239616412733146E-04
               4.5715666946547515E-04
               4.7857918827938376E-05
               3.1443907226057621E-03
              -2.1229874325427119E-03
              -4.9585341159785320E-03
               1.7623878016175228E-03
              -4.8431286797672949E-03
              -9.1052330910341051E-04
              -1.6728359504426251E-03
               4.1590587084999373E-04
              -8.1491639591681263E-04
               3.5826084590121886E-03
              -1.4511671252677154E-03
              -1.8677642690790553E-03
               5.6632638001647318E-04
               2.3506111328699302E-03
              -3.7105978911789210E-03
              -4.6236011709873613E-04
              -2.5902432613725550E-03
              -4.0778649616394981E-04
               2.4226957683603076E-03
               1.7409641894101607E-03
              -5.7104094111305338E-03
               1.4058211460880492E-03
               3.5238533286681400E-03
              -8.2931811570095175E-04
              -1.7141916914554204E-03
               1.7746315118221425E-04
               7.0346183676660388E-04
               1.8137318744928818E-03
              -2.7114286811857360E-04
              -6.0767558886609492E-03
               3.0137589079127060E-03
               2.7967166160308542E-03
              -5.5844200677086070E-04
               2.4400571292579089E-03
               1.6280977429010825E-03
               4.7960231056236964E-03
               9.3898734823328082E-04
              -4.5857009410496261E-03
               1.2867970785672845E-03
              -3.3807247001385711E-03
              -5.1017960633925087E-03
               3.0992826369356701E-03
              -3.1603659904501515E-04
               1.1011572137757254E-03
              -3.5219003155083329E-04
               2.2565289953575332E-03
              -4.8035881329320580E-04
              -2.4104200071187417E-03
              -2.8554057128254971E-03
              -2.1554688742329883E-03
              -1.9017851416818117E-04
               7.5785793255825492E-04
               5.7023478957498252E-04
              -4.4831317999893275E-05
               3.3600092089965832E-03
               4.4875733014902502E-03
              -1.2555913480043329E-03
              -2.9796157634802284E-03
               1.3831073389062212E-03
               6.6426812131952851E-04
               2.3227312310767408E-03
               2.0935787354525075E-03
              -3.0085651354193896E-03
              -4.1489425764387674E-04
              -8.9356638862902560E-04
              -1.1063704146306319E-03
              -3.0114648099954836E-03
              -1.4847204926193896E-03
               2.4019384224712838E-03
               4.7030826066125919E-04
              -3.3388134412937645E-03
               7.2697710648840009E-04
              -2.9932090571806519E-03
               2.1604462210832046E-03
               1.7302341941696983E-03
              -1.2284154413739218E-03
              -7.3705275171858601E-04
               5.8312701904469034E-03
              -2.9077247893233890E-04
              -5.8217804048765585E-05
              -2.3185173087931742E-03
              -3.3381401143607343E-03
               1.2302086767855937E-03
               1.7146460725254358E-03
               1.8944360513583106E-03
              -5.3341009643536534E-04
               8.3946954756720915E-04
               7.6497899227698967E-04
               3.3044196374483930E-03
              -2.4974657098636326E-03
               3.8625189392148258E-03
              -4.0797350708205856E-03
              -2.3762656643571260E-03
              -2.4036199659775875E-03
              -4.0142170229943920E-04
               3.4735311043889647E-03
               1.6785610447691041E-03
              -1.1911254391939379E-03
               9.8717544686070867E-04
               3.2445845675762863E-03
               2.8613137018180194E-03
              -2.1672605930330656E-03
              -8.5731215140160896E-03
               2.4713215303970135E-03
               4.6151987021248939E-05
              -4.5407772197223733E-03
              -1.1563798542965729E-03
              -1.0020830740410669E-04
               1.9336505436156884E-03
              -6.9205348429028787E-04
               1.8457201901264236E-03
               1.5110078101662325E-03
              -5.3266018964256718E-03
              -1.1413072790577654E-03
              -2.5361265545131976E-03
               2.1470975991113826E-03
               4.3515451094820610E-04
              -1.8798455683672762E-03
              -1.8333654078244513E-03
               1.6331214377008105E-03
               1.4146535103043618E-03
              -1.5707932085437489E-03
               3.2730780795428693E-03
              -2.0883895062757311E-04
              -1.5388941169704325E-04
               1.6151290049475015E-03
              -6.4909926649444269E-03
              -8.7765602748755194E-04
               1.2566948403310591E-03
               9.0715608020921796E-04
               1.2056827463975926E-03
               4.8783755986951420E-03
              -3.0732948705087955E-03
              -3.1277657102062517E-04
              -2.0655904660614363E-06
              -1.4578866357062648E-03
              -4.6519525267798090E-03
               8.1858735275278250E-03
              -3.0469786204569203E-04
              -4.1736548395979390E-04
               3.2641817632818606E-03
               8.9275706536260594E-04
              -7.4084142435946142E-04
              -3.5728031714339476E-03
              -6.3659473466808297E-04
              -3.8891654214678519E-03
               2.2002405144488095E-03
               1.2989025705029573E-04
               1.0886054428713590E-03
              -4.6758127387296336E-03
               1.7801944303531896E-03
              -2.6111930792281044E-04
               1.2785329759044104E-03
              -1.9359426739611900E-03
              -6.7519634807070852E-04
               3.1690936763027582E-04
               2.9440369005965458E-03
               5.4686793989734660E-03
              -5.8650235924863018E-03
              -1.8527205830386525E-03
              -1.4579053091821428E-03
               7.1457035149078872E-04
               8.3717142647612790E-04
               2.3676542017319383E-03
              -1.0801184654031053E-03
              -3.5426357936795085E-03
               2.2717635065859216E-04
              -3.8007848278141299E-04
              -4.8782863802769084E-04
              -1.0857985024879618E-03
               1.4293193531107016E-03
               1.5391323595350102E-03
              -3.7262616373909536E-03
              -5.0603749873840862E-04
               5.7365037401311764E-03
              -5.8286727123474825E-04
              -3.2217575338105266E-03
               6.8699878581072451E-05
               1.4326006944427789E-03
              -7.3304961802587434E-04
               1.9559424983553046E-04
              -1.9011359669911477E-03
               1.0231118266351752E-03
              -6.6348434130533316E-04
              -1.1391196180529568E-03
              -8.6168950481890576E-04
               4.8276256085409371E-04
               1.0359212136982819E-03
               2.4008856759728372E-04
               5.1757886249975665E-03
              -1.9263359380676949E-03
              -6.5551063559622365E-05
               4.8514726889723287E-03
               6.5567947252880736E-04
               1.2615039530990714E-03
              -1.1689665587975525E-03
              -1.9442973459218621E-03
               2.2965900573148584E-03
               6.1287218721074004E-03
              -5.4885485415911501E-05
              -1.4965045555162336E-03
               1.0601460356984148E-03
              -1.1687333766001593E-04
              -1.4580139529259562E-03
              -2.2693116056976900E-04
              -4.6685154048288942E-03
              -8.7620212702110714E-04
               1.0066249928424053E-03
              -3.7976442328420661E-04
               2.0292997779380035E-03
              -2.5500616880146211E-03
               1.3506388730416151E-03
               2.8101565199696562E-03
               2.5178664455697266E-03
              -9.8585839777124459E-04
              -8.2256152940553252E-04
              -7.3973576620471387E-04
              -3.7141819894262046E-03
               3.5917004535796016E-03
              -3.3013826774135155E-04
               2.6332081464072716E-04
              -3.5884204921526842E-03
               1.9264132625534426E-05
              -1.4325452415862086E-03
               4.0389643244411943E-03
               3.9722975739345278E-04
               6.9862580602032516E-04
              -3.6724909335706709E-03
               3.2720740124827597E-04
               6.2261420807524781E-03
              -6.6167229652157591E-03
              -9.1178693023034538E-04
              -4.3710252475884172E-04
               1.3360313397729388E-03
               2.3272794642631824E-03
              -2.1948293733712780E-03
              -1.3369117949508650E-03
              -3.5664698490836782E-04
               2.2827828607873244E-03
              -3.3998465535242631E-03
               1.3663287438070051E-03
               9.4501954225338495E-04
               2.1234970385217589E-03
              -1.5940575275305170E-03
              -2.1988521801974688E-03
              -2.7057130101703570E-03
               2.3550845676250844E-03
               1.7015173952166359E-03
              -1.5799783094431346E-03
              -8.3846110431068377E-04
               1.3280665862021741E-04
               3.3131851302801112E-04
               1.3473650801834184E-03
              -5.1246966076271576E-03
               3.2480855348907814E-03
               4.2662586436076246E-05
              -1.9287662450364596E-03
               1.7680265194042579E-04
               1.4159563431410994E-03
               3.3301637372575412E-04
               3.7957179713050673E-03
               8.3479975618602016E-04
               6.7304944534852596E-04
               1.2744698050826339E-03
              -1.7094992545709712E-03
               1.5196244265381199E-03
              -9.6265104287190256E-04
               9.3475009170038907E-04
              -2.8820378070373120E-03
              -2.4761499090452718E-03
              -5.4197575154494963E-04
              -3.2399782992179418E-03
               2.5422678450216906E-03
              -1.9176879583114130E-03
               1.2559849643931026E-03
               3.5661295823695319E-03
               4.0494503609973783E-03
               4.3461454363174774E-04
              -9.9931385865887918E-04
              -4.9588826485493171E-03
              -3.4408921447611671E-03
               3.7446037855531997E-03
               2.3317136063334370E-03
               3.0096818555681148E-03
              -2.4736854469791462E-03
              -1.8679043265262265E-03
               3.8257694351912175E-04
              -2.3002800367498159E-03
              -3.6972921988632150E-03
               3.2837197888465753E-03
               1.7736529620012041E-03
               4.6099498651517466E-03
              -3.4955960603946512E-03
               2.2505857175221845E-04
         &END THERMOSTAT_ENERGY
         &RNG_INIT
Wiener process for Thermostat # 1        1 F T T   1.6053746613662760E+00        2136144209.0        3757602894.0         510681299.0        1181246305.0        1012254081.0        2063964754.0             12345.0             12345.0             12345.0             12345.0             12345.0             12345.0             12345.0             12345.0             12345.0             12345.0             12345.0             12345.0
Wiener process for Thermostat # 2        1 F T T  -4.4399013069254517E-01        2950978733.0         464772046.0        2098151389.0        3067386040.0        3727955151.0        2129646030.0        3692455944.0        1366884236.0        2968912127.0         335948734.0        4161675175.0         475798818.0        3692455944.0        1366884236.0        2968912127.0         335948734.0        4161675175.0         475798818.0
Wiener process for Thermostat # 3        1 F T T  -8.6394386316827471E-03        2305358721.0        1390769112.0         843523027.0        3153780119.0        3572641737.0        3116783433.0        1015873554.0        1310354410.0        2249465273.0         994084013.0        2912484720.0        3876682925.0        1015873554.0        1310354410.0        2249465273.0         994084013.0        2912484720.0        3876682925.0
Wiener process for Thermostat # 4        1 F T T  -7.7811274515508544E-01        2376015537.0        2192322110.0        3204312152.0         106233706.0         428475698.0        1576642517.0        2338701263.0        1119171942.0        2570676563.0         317077452.0        3194180850.0         618832124.0        2338701263.0        1119171942.0        2570676563.0         317077452.0        3194180850.0         618832124.0
Wiener process for Thermostat # 5        1 F T T  -7.9858578116191725E-01         914068916.0        1325974605.0        2617721600.0        2272387339.0        3844581599.0        3672933885.0        1597262096.0        3906379055.0        3312112953.0        1016013135.0        4099474108.0         275305423.0        1597262096.0        3906379055.0        3312112953.0        1016013135.0        4099474108.0         275305423.0
Wiener process for Thermostat # 6        1 F T T   1.1748549603690155E-01        3198496270.0        2472538269.0        2106865034.0         905832888.0        4015113612.0        3227218900.0          97147054.0        3131372450.0         829345164.0        3691032523.0        3006063034.0        4259826321.0          97147054.0        3131372450.0         829345164.0        3691032523.0        3006063034.0        4259826321.0
Wiener process for Thermostat # 7        1 F T T   1.0677921465571598E+00        1518501995.0        1043059006.0        4193740311.0        3510852437.0        1986556611.0         588622133.0         796079799.0        2105258207.0         955365076.0        2923159030.0        4116632677.0        3067683584.0         796079799.0        2105258207.0         955365076.0        2923159030.0        4116632677.0        3067683584.0
Wiener process for Thermostat # 8        1 F T T  -9.6960318463937087E-02        1578996341.0        1722829653.0         772901225.0        4068907606.0        4162862476.0        3371554187.0        3281794178.0        2616230133.0        1457051261.0        2762791137.0        2480527362.0        2282316169.0        3281794178.0        2616230133.0        1457051261.0        2762791137.0        2480527362.0        2282316169.0
Wiener process for Thermostat # 9        1 F T T  -8.3762556051277048E-01        2359421861.0         298666338.0         907880480.0        3452325305.0        3984804970.0        1311676831.0        3777646647.0        1837464056.0        4204654757.0         664239048.0        4190510072.0        2959195122.0        3777646647.0        1837464056.0        4204654757.0         664239048.0        4190510072.0        2959195122.0
Wiener process for Thermostat # 10       1 F T T   5.7288529100409380E-01        3208570678.0        3544011112.0        1998389539.0        1256814649.0        4254052873.0            272114.0        4215590817.0        3862461878.0        1087200967.0        1544910132.0         936383720.0        1611370123.0        4215590817.0        3862461878.0        1087200967.0        1544910132.0         936383720.0        1611370123.0
Wiener process for Thermostat # 11       1 F T T  -3.8419616030953502E-01        3870371916.0        2826390651.0        2197020621.0        1599217562.0        1456245124.0         499807973.0        1683636369.0         362165168.0         814316280.0         869382050.0         980203903.0        2062101717.0        1683636369.0         362165168.0         814316280.0         869382050.0         980203903.0        2062101717.0
Wiener process for Thermostat # 12       1 F T T  -9.1450534401463124E-01        2363858354.0        3064236367.0        4246562364.0        1047240928.0        2629514220.0        1806291014.0         272317999.0         166758548.0         310112982.0         201045826.0        1680231254.0         118290799.0         272317999.0         166758548.0         310112982.0         201045826.0        1680231254.0         118290799.0
Wiener process for Thermostat # 13       1 F T T   1.2464432807226773E-01        1605204802.0        2036915705.0        1842001572.0        2772980982.0        3999471979.0         143601878.0        2245755202.0        1652682525.0        2865544364.0         721509566.0         209733568.0         592362218.0        2245755202.0        1652682525.0        2865544364.0         721509566.0         209733568.0         592362218.0