 # Version information for this restart file 
 # current date 2024-11-21 20:52:47.830
 # current working dir /scratch/work/courses/CHEM-GA-2671-2024fa/students/mr6966/comp-lab-class-2024-MR/Week12-IntroAIMD/Runs/Water
 # Program compiled at                              Sat Dec 12 18:27:15 EST 2020
 # Program compiled on                                         cs001.nyu.cluster
 # Program compiled for                                                nyu-intel
 # Source code revision number                                       git:8c64c6e
 &GLOBAL
   PRINT_LEVEL  LOW
   PROJECT_NAME water_aimd_1ns_every0.5fs
   RUN_TYPE  MD
   WALLTIME 21600
 &END GLOBAL
 &MOTION
   &GEO_OPT
     OPTIMIZER  BFGS
     MAX_ITER  100
     MAX_DR     3.0000000000000001E-03
     &BFGS
     &END BFGS
   &END GEO_OPT
   &MD
     ENSEMBLE  NVT
     STEPS  2000
     TIMESTEP     4.9999999999999994E-01
     STEP_START_VAL  219
     TIME_START_VAL     1.0950000000000009E+02
     ECONS_START_VAL    -1.1023558357480233E+03
     TEMPERATURE     3.0000000000000000E+02
     &THERMOSTAT
       TYPE  GLE
       REGION  MASSIVE
       &GLE
         NDIM  5
         A_SCALE     1.0000000000000000E+00
         A_LIST     1.8595758612559999E+02    2.7263853498399998E-01    1.1526100454610001E+01   -3.6414578262600003E+01 \
             2.3173375816020001E+02
         A_LIST    -2.7809524712060002E-01    8.5951591808710006E-05    7.2189048017650004E-01   -1.9844539343859999E-01 \
             4.2409257583420001E-01
         A_LIST    -1.4825808131210000E+01   -7.2189048017650004E-01    1.3590902121280000E+00    5.1498896280349999E+00 \
            -9.9949268450990001E+00
         A_LIST    -1.0372189126880000E+01    1.9844539343859999E-01   -5.1498896280349999E+00    2.6661910891169999E+01 \
             1.1507715495310000E+01
         A_LIST     2.1801346360420001E+02   -4.2409257583420001E-01    9.9949268450990001E+00   -1.1507715495310000E+01 \
             3.0958394565589998E+02
         &THERMOSTAT_ENERGY
              -3.5203573465090437E-03
               5.9386350495219987E-04
              -1.0802081316283528E-03
              -2.2558983407371404E-03
              -1.8413644598816586E-04
               2.6628774515535594E-03
              -4.6732191359421865E-03
               1.5555103669557613E-03
               6.3638710670609984E-03
              -6.3540440731347635E-04
               3.6457379615740925E-03
               1.8946953847197019E-05
               2.1528182659570226E-04
              -9.6263031379523818E-04
               1.3588338603809933E-03
              -3.7386851983285166E-03
               4.8607192061896117E-03
              -4.0430674691338314E-04
               3.9260393507046382E-03
              -1.4624521796383241E-03
              -2.9372677693625813E-04
              -1.2608000740033185E-03
              -2.0812578203877686E-03
               2.9948642192140825E-03
              -2.6201157032223789E-03
              -2.7069066814217448E-03
               2.6664097658482084E-03
               1.6589034159072585E-03
               1.3285315293690700E-03
               5.3638011059698712E-04
              -2.9272633871657286E-03
               3.2979716704776565E-04
               7.9671661814253157E-04
               1.9118642956210306E-03
              -4.4647405339331243E-03
               3.8826564181614681E-03
              -6.7765545191483811E-04
              -1.0142156387639963E-03
               5.5409041481299355E-04
               2.3455408237533460E-03
              -4.2612717673777941E-04
              -4.1336228353643784E-03
              -1.4659462475823750E-03
               3.4339912056353060E-03
              -2.5700197913507122E-03
               1.3167859669618205E-03
              -1.3155103020201910E-03
               2.1867227134246125E-04
              -2.8518354524141830E-03
              -1.1345255261897889E-03
               8.7725494275123325E-04
              -5.7806214851549185E-04
              -3.1840948786242868E-03
              -7.6601357461929731E-04
              -2.8053228911311917E-03
               5.4729722708636607E-04
              -1.0448466168488865E-03
               1.7388978763061931E-03
               9.6104723015469611E-04
              -2.2490005917974172E-03
              -1.1558060848943933E-03
               5.0172960914866378E-03
              -1.1203100905331821E-03
              -6.6085918268905060E-04
              -1.3008665665651257E-03
               1.2226528854061309E-03
              -3.1406554013529596E-03
               2.6580256104981053E-03
              -8.5998417660775538E-04
               2.3669004195779474E-03
              -2.9413890553773821E-04
               6.7626939114102177E-05
              -1.4516456633086030E-03
               1.3146381056919269E-03
              -6.6825692352212227E-04
              -1.5637177134794765E-03
              -9.2093273192950589E-05
               1.5534395849491700E-03
               5.7668873967079591E-03
              -1.9663796363222253E-03
               5.8807504804828049E-04
              -4.5811106544015078E-04
              -1.0859590149003473E-03
              -1.5223592158439838E-03
               3.4976763166102813E-03
              -3.7159353519477319E-04
               2.8192960760179222E-05
               1.3221127092180754E-03
               8.1309209126229813E-04
               4.6618006973874691E-04
               2.7612847313616584E-03
              -4.1489367121692157E-03
               2.2759803117407074E-03
               1.5053974096252283E-04
              -3.6209249642431859E-03
               1.3239189590590587E-04
              -5.8436455545708536E-04
              -3.9544990069656548E-06
               2.2271992368630309E-03
               2.1358978333869110E-03
               1.0972173984334413E-04
              -1.9722140446242192E-03
              -1.4519689638107516E-03
               1.2562174358051508E-04
               3.8649228979710402E-03
              -2.5299138567456423E-03
              -6.2592830746720349E-04
               7.5769670338014241E-04
               3.1158065714488453E-03
              -9.7638417189351034E-04
               5.5688106232511195E-03
               1.0572801011769727E-03
              -1.2925772422097402E-03
              -1.4191678276374211E-03
               2.7772315533221787E-03
               3.1729229951686609E-03
              -1.1232312708284340E-02
               6.7560667063580842E-04
               1.8486820647192136E-03
              -9.5353104285467768E-04
               1.4236467737414112E-04
              -1.8615521608421727E-04
               2.1708587868053508E-03
              -1.0404801200845836E-03
              -6.7397742302086625E-03
               1.5035299803545768E-03
               1.3368121668386362E-03
               3.1139804583634081E-03
               8.8962852197132592E-04
               1.3652203310710056E-03
              -1.8455860154884263E-03
              -1.8815152814568884E-03
               2.2194354202604444E-04
              -5.7656019592434594E-03
               1.7922177984854520E-03
              -7.6587627951489091E-04
              -1.5610847996273070E-03
              -2.0439789974520490E-03
               1.3073976016451595E-03
               6.4728383549148382E-05
               3.9200302548516629E-03
               1.3445103952445360E-03
               1.0486494783404042E-03
               1.0106882968673690E-03
              -9.6812907458475284E-04
               9.5338507782491877E-05
               6.7676676750669652E-04
               1.7567435296201909E-03
              -2.7733864948624384E-03
               2.8224655335150127E-03
               9.5081189838314628E-04
               1.8451489631838190E-03
              -1.0274368565730129E-03
              -7.3365569265883052E-04
               7.0450958014130834E-04
               2.0354034110852724E-04
               2.2360822573326508E-03
               3.6250593709840108E-03
              -1.2417197237344147E-03
               2.2297996535446079E-03
              -2.4795346381436861E-03
              -4.1278724211546349E-03
              -1.6776041832402422E-04
              -1.7620473295679336E-04
               1.4672417049664647E-03
               3.7701885761819093E-03
               1.7767620245661736E-03
               6.1407080727553806E-04
              -5.8798983164575309E-03
               2.2290957139866081E-03
               8.6633282185738557E-04
              -2.3536356907554254E-04
               2.5338993754361284E-03
              -1.0000396616954505E-03
              -2.1412720783028868E-03
              -7.2458498133117139E-04
              -8.1945118990563821E-04
               5.3312090284470485E-03
              -5.1307857989253680E-04
               3.0726077210055350E-03
              -2.0976638528865492E-03
               5.9230105199183916E-04
               1.6878905309606516E-03
              -2.2951655539170737E-04
              -2.9369343410052960E-03
              -1.3627729226000856E-04
              -2.0868686015723223E-03
               1.1382103867731215E-03
              -1.8630881994881568E-03
               1.2796409463969522E-03
               3.0322917549178052E-04
              -1.4957436870934953E-03
               3.9462910717389882E-03
              -3.6396446368462607E-03
               1.1574274758806903E-03
              -2.2445637522882779E-03
              -3.6813514753054893E-05
              -1.0049047554391561E-05
              -2.7504505282189640E-04
              -2.9102500736885096E-05
               2.8194698369888297E-04
              -1.9761863187217673E-03
               6.6822778056050336E-04
               8.9639016934419942E-04
              -4.1482072444289234E-03
               2.7323032978868928E-03
              -9.3105743344315084E-04
               8.4327484841396232E-04
              -1.1380152959182854E-03
               3.6363307560532548E-03
              -3.7776502666555096E-04
               1.3992149699136448E-03
               2.8708529536495097E-03
              -4.0069356393420382E-03
               5.5845153627422537E-03
               3.1356182565319100E-03
              -8.5271715945919727E-04
               1.9888978082660438E-03
              -3.3297637947869410E-03
              -2.1533021583867579E-03
               1.1970178102324869E-03
              -8.1007109650410678E-04
               2.5054902193485818E-03
               5.9714503352925217E-04
              -2.8132852518824680E-04
               7.7305511141662845E-04
              -5.5360330997199550E-04
               2.1620548463791855E-03
              -1.3039094472261652E-03
               2.3475504425030701E-03
              -2.4255862335021724E-03
               2.9747487201240517E-03
               2.0073634510363843E-03
               2.2435084665168618E-04
               2.6390535516751129E-03
               3.3462482278414854E-04
              -2.3486276219830127E-03
               2.1859166353103768E-03
              -1.0215423667130964E-03
               3.1451892280441162E-03
               2.5238315804366270E-04
               1.5440115280415064E-03
              -1.0774460617276813E-04
               1.0771427942700838E-03
              -1.3509392277030437E-04
               1.4324859321882925E-03
              -5.4263284336011843E-04
              -5.0692936896076324E-04
               1.9837223038334038E-04
              -6.1777720037545973E-04
               5.1657864876293157E-04
               1.8707182720732983E-03
              -3.2621460430549087E-05
              -1.8761699182581670E-03
              -1.1951863718674279E-03
              -2.5090375746695086E-03
              -3.9104962067427389E-04
              -8.4552005167106282E-04
               6.2346290078436027E-04
              -2.7383163555613739E-03
               4.3647258253163854E-03
               1.6026538030521858E-03
               2.1576982149982206E-03
               1.4679706946500374E-03
              -2.9827811284461968E-04
              -1.8621956284983314E-03
              -1.6979960952770329E-04
               5.5834381590219454E-04
               9.9813331639904954E-04
              -1.1517410033790880E-03
              -7.1397727301073541E-04
              -1.2788179843081521E-03
               1.1650560440477590E-03
              -4.4397780531478255E-04
               2.3554645230279476E-03
               1.2983952436821352E-03
              -6.9071419559289613E-03
              -1.5227750756839698E-03
               1.2981501299149845E-03
               3.6323149624925414E-04
               5.9677599420634064E-04
               3.5244588618702909E-04
               3.0123168714675831E-03
              -2.1895083124646953E-03
              -5.1269487045812936E-03
               2.1700408063359245E-03
              -3.4203245979105889E-03
              -9.0043910735988309E-04
              -6.8363178743432887E-04
               1.2385843409460267E-03
              -3.1092416412390638E-04
               3.2123321936980307E-03
              -1.3998154587297571E-03
              -1.6585371846637759E-03
               6.8526637135190216E-04
               2.5249542179348917E-03
              -4.0204113069417366E-03
              -5.6147745772373338E-04
              -2.4604421373295446E-03
              -7.0969789820348166E-04
               5.3790988595792729E-04
               1.6499511633569519E-03
              -6.1292775819452756E-03
               1.2765683249071486E-03
               3.1957295974270124E-03
               2.1303849489328599E-04
              -1.7823893850343129E-03
               3.8992276128756100E-05
               4.6914320813471535E-04
               1.7759572525197095E-03
               4.6998888753754467E-04
              -6.2506552073637849E-03
               3.4285851739257731E-03
               2.8220278376115903E-03
              -6.4211837620244193E-04
               3.0224195179675054E-03
               2.5446850163995771E-03
               4.7873817784792301E-03
               2.5693747401315387E-04
              -4.3603561865629727E-03
               1.1900524171866355E-03
              -2.7249872236317571E-03
              -5.7092322034091036E-03
               3.3923101826005752E-03
              -5.3558974574415821E-04
               1.2965036699894895E-03
              -2.2963781088120079E-04
               2.8777538414873041E-03
              -4.6055022589583806E-04
              -2.4188878088827756E-03
              -3.1432722308318622E-03
              -2.3199310759750014E-03
               1.8153499572038405E-03
               6.4598984085347509E-04
               5.9786612950096796E-04
              -3.2923779179168958E-04
               2.9967821871530916E-03
               4.2780669548124614E-03
              -5.7933261507146501E-04
              -3.0455341612852589E-03
               1.0277153179514054E-03
               7.5619336790342675E-04
               2.5007362666026366E-03
               2.2037675523457370E-03
              -2.0617443206010760E-03
              -3.6466102880537720E-04
              -9.6230955519911125E-04
              -1.1106104632490868E-03
              -2.3466875510180438E-03
              -2.1766139506132400E-03
               2.4006705627236950E-03
               7.2278665853132409E-04
              -2.9302669198366864E-03
               7.5556088155068169E-04
              -3.0413378155975312E-03
               2.3615801692304494E-03
               1.7540257985437541E-03
              -1.0436292927480737E-03
              -1.9380842475712396E-04
               5.7746011204586542E-03
               3.0450095721454053E-05
              -7.9623213775988121E-04
              -2.1275152033237562E-03
              -3.4326656573180525E-03
               4.7850796760241375E-04
               1.7953047045850244E-03
               2.0947986336156544E-03
              -4.7741423408779007E-04
               5.7038763909564815E-04
               9.2123387826824180E-04
               2.4592692325212931E-03
              -2.5121696911152291E-03
               3.6431709061259454E-03
              -4.0902360025181755E-03
              -3.4203320292663835E-03
              -2.5729432705723591E-03
               8.7830073835314722E-04
               3.5158891730507169E-03
               1.4615654966130816E-03
              -1.2423072460563472E-03
              -8.0145777514695400E-04
               3.7684149403338064E-03
               2.5364914897825705E-03
              -3.8974952937921464E-03
              -8.4571585249071986E-03
               1.7813384469178481E-03
               3.8578126629699463E-04
              -4.5132383670329857E-03
              -9.7126588218523374E-04
               4.2165916824624602E-05
               1.9502064830984945E-03
              -8.1677461928675484E-04
               1.6627415837578486E-03
               1.5827527541921634E-03
              -6.5588967648230641E-03
              -1.2182703220078926E-03
              -3.0228078783663139E-03
               1.8839256869314718E-03
               4.4209915519297083E-04
              -1.5255124925039152E-03
              -1.6970520602248786E-03
               1.6930914548157665E-03
               1.2728669425981617E-03
              -1.1004187708386817E-03
               3.2309480569088140E-03
              -1.8424119303685801E-04
              -2.2592873566407951E-04
               2.4703340249508251E-03
              -5.2827759300831771E-03
              -9.0175473341965969E-04
               1.1009611840171597E-03
               9.4855455589190228E-04
               1.3212958824477307E-03
               4.9100311013998699E-03
              -3.0753568234820798E-03
              -2.7759492342251059E-04
              -4.0439745499079918E-04
              -2.8841283296402349E-03
              -4.9761541902959656E-03
               8.1694631325504238E-03
               3.4576064917377747E-04
              -7.2176580591343351E-04
               3.1281706140851174E-03
               1.1862154579889489E-03
              -7.0793896788628324E-04
              -4.0918359563028653E-03
              -6.2104486986719744E-04
              -3.7835963202987898E-03
               2.2275439130047450E-03
               1.7901833143118618E-03
               8.4931004382621906E-04
              -4.8389899503267532E-03
               1.6984116760999806E-03
              -5.2433291487276887E-04
               1.0301340904731412E-03
              -2.2246545871533168E-03
              -5.9975367890823417E-05
               2.7630047868540809E-04
               3.0075735066419705E-03
               4.4591879665377187E-03
              -5.8750028509386969E-03
              -1.4870184303891062E-03
              -1.3522402611858744E-03
               1.3263129151614894E-03
               5.6117727276055389E-04
               2.0410599356564941E-03
              -1.0548075962297182E-03
              -3.6774805699687860E-03
               3.3959287467433768E-04
              -4.2031964668055736E-04
               7.3052749594900747E-04
              -1.3153401709926104E-03
               1.2937205371976901E-03
               1.7745569266677563E-03
              -3.9724272656989522E-03
              -3.8852992056119133E-04
               5.9081524754443313E-03
              -1.3344791199501463E-04
              -2.2378503269523528E-03
              -5.4294622511567414E-04
               1.3912028488916196E-03
              -6.6189856667219979E-04
               9.7907397806165744E-05
              -1.8047655173831091E-03
               3.8588101217182304E-04
              -4.8905707504452679E-04
              -2.0588248852570551E-03
              -1.0789415803644448E-03
               5.1491785932549438E-04
               1.0155059007702113E-03
              -2.1072585950214848E-04
               5.6793090662351975E-03
              -2.1139211625800071E-03
               6.5420140441158168E-04
               5.2167787773575768E-03
               6.6401468608661492E-04
               1.5443405765411125E-03
              -1.2034614663734981E-03
              -1.3428045774527785E-03
               2.7455151038683146E-03
               6.2072438086432031E-03
              -1.0541029857708876E-04
              -1.2338577640617907E-03
               8.6728789693589123E-04
              -2.2170956751866154E-05
              -1.3019925505382965E-03
              -2.1365287016889765E-04
              -3.2445015334315926E-03
              -7.3319109012800684E-04
               9.9253003098756639E-04
              -2.7138288611667453E-04
               2.3444193663722133E-03
              -2.7222613258479989E-03
               1.3351335178716991E-03
               2.8713426893496753E-03
               2.1694421215904679E-03
              -7.5237155476160628E-04
              -9.7951099500641326E-04
              -1.0640296406770992E-03
              -4.1484205928230388E-03
               3.4995143431997776E-03
              -4.5424130787058772E-04
               7.3771145056754416E-04
              -3.5650287785483361E-03
               4.5216901134787391E-04
              -1.1634170581435841E-03
               2.6025799553611329E-03
               2.2908707670394278E-04
               5.9172431575610362E-04
              -3.7462115775238414E-03
               3.6986832561673727E-04
               6.2432695115552635E-03
              -6.4439840201217825E-03
              -8.6966882472879544E-04
              -4.5573772881676150E-04
               7.9093063425105838E-04
               2.8254316219199320E-03
              -2.0470106763763934E-03
              -1.3583189980439700E-03
              -3.8426730917532801E-04
               1.9799180026316373E-03
              -3.3093732409558091E-03
               1.1756821416958997E-03
               7.8879672968986477E-04
               2.1743718761514539E-03
              -1.3617053376891567E-03
              -2.0292227342706545E-03
              -2.8122644683871633E-03
               2.4355582935432652E-03
               2.2121115364397855E-03
              -2.1509666148494390E-03
              -1.0616336696612572E-03
               4.0050407791418652E-05
               2.9359888000042735E-04
               1.2722160324365283E-03
              -4.1705436126760302E-03
               1.8523116893770959E-03
               4.5475375583361958E-05
              -1.8849658261205313E-03
               1.4887133099750996E-04
               1.1333767835688599E-03
               3.4365690120279996E-04
               3.0766319236020124E-03
               9.0247459820504161E-04
               8.4831898895301164E-04
               4.4577077654481636E-04
              -2.0950626221237049E-03
               1.6166878661411444E-03
              -1.1816598258742813E-03
               1.4083839048463689E-03
              -3.1648908577641311E-03
              -2.7186511821365774E-03
              -2.8845454516927263E-04
              -3.2966361763417376E-03
               2.7552036219871383E-03
              -1.8961029909193507E-03
               1.0852733947877930E-03
               3.5427257638142697E-03
               3.8163419154688392E-03
               6.3827223374579426E-04
              -3.0468949759503779E-04
              -4.1626844844543671E-03
              -3.1594750809507141E-03
               3.7241267478999940E-03
               2.4027457366560508E-03
               3.3392774612169968E-03
              -2.3268057365505843E-03
              -1.1953396006268568E-03
               3.5093985963748900E-04
              -2.3611567964108267E-03
              -3.8607363105522909E-03
               2.9063615585855984E-03
               1.2459904356815442E-03
               4.3984971010274003E-03
              -3.5392856530154547E-03
              -2.9476267645620595E-04
         &END THERMOSTAT_ENERGY
         &RNG_INIT
Wiener process for Thermostat # 1        1 F T T  -1.9590898474981103E-01        2569999691.0        4270596567.0        2066054648.0        3674285882.0        2502387115.0        3544239145.0             12345.0             12345.0             12345.0             12345.0             12345.0             12345.0             12345.0             12345.0             12345.0             12345.0             12345.0             12345.0
Wiener process for Thermostat # 2        1 F T T  -1.9514545867128292E+00        1825656889.0         165172132.0        4287991743.0         931475145.0        3077431649.0         541321769.0        3692455944.0        1366884236.0        2968912127.0         335948734.0        4161675175.0         475798818.0        3692455944.0        1366884236.0        2968912127.0         335948734.0        4161675175.0         475798818.0
Wiener process for Thermostat # 3        1 F T T  -4.4525113656539506E-01        1947971618.0        3334781366.0        1460501275.0         253726193.0        2126886472.0        2258272706.0        1015873554.0        1310354410.0        2249465273.0         994084013.0        2912484720.0        3876682925.0        1015873554.0        1310354410.0        2249465273.0         994084013.0        2912484720.0        3876682925.0
Wiener process for Thermostat # 4        1 F T T  -8.5739043119682457E-01          26779665.0        3548468157.0        1635202345.0         764461073.0        3174229637.0        2179019612.0        2338701263.0        1119171942.0        2570676563.0         317077452.0        3194180850.0         618832124.0        2338701263.0        1119171942.0        2570676563.0         317077452.0        3194180850.0         618832124.0
Wiener process for Thermostat # 5        1 F T T  -7.1081945008842440E-01         184001156.0        1654294824.0        1126934109.0         354373553.0        1215897017.0        1093906459.0        1597262096.0        3906379055.0        3312112953.0        1016013135.0        4099474108.0         275305423.0        1597262096.0        3906379055.0        3312112953.0        1016013135.0        4099474108.0         275305423.0
Wiener process for Thermostat # 6        1 F T T   1.5664152279497467E-01        4268007778.0        2565446193.0        3326561970.0         106552935.0         219199750.0        3599269093.0          97147054.0        3131372450.0         829345164.0        3691032523.0        3006063034.0        4259826321.0          97147054.0        3131372450.0         829345164.0        3691032523.0        3006063034.0        4259826321.0
Wiener process for Thermostat # 7        1 F T T   6.2740874978197858E-01        1531564323.0         193250512.0        1419648271.0        2876012148.0         541814993.0        3972154884.0         796079799.0        2105258207.0         955365076.0        2923159030.0        4116632677.0        3067683584.0         796079799.0        2105258207.0         955365076.0        2923159030.0        4116632677.0        3067683584.0
Wiener process for Thermostat # 8        1 F T T  -5.1384884262455743E-01         954853160.0         148661366.0        2005956298.0        3428092814.0        2562058492.0         166714709.0        3281794178.0        2616230133.0        1457051261.0        2762791137.0        2480527362.0        2282316169.0        3281794178.0        2616230133.0        1457051261.0        2762791137.0        2480527362.0        2282316169.0
Wiener process for Thermostat # 9        1 F T T  -1.1238108457680656E-02        3794174063.0        3344761152.0        2040165977.0        3757611514.0        1229230137.0        1410525084.0        3777646647.0        1837464056.0        4204654757.0         664239048.0        4190510072.0        2959195122.0        3777646647.0        1837464056.0        4204654757.0         664239048.0        4190510072.0        2959195122.0
Wiener process for Thermostat # 10       1 F T T  -5.5201485602967737E-01        1409978825.0         516103656.0        3651303807.0        1226283080.0         356589563.0        2813479091.0        4215590817.0        3862461878.0        1087200967.0        1544910132.0         936383720.0        1611370123.0        4215590817.0        3862461878.0        1087200967.0        1544910132.0         936383720.0        1611370123.0
Wiener process for Thermostat # 11       1 F T T  -6.3531527444794164E-02        1979624803.0        4272969537.0        1165402049.0        2446316399.0        2283913781.0        2032095922.0        1683636369.0         362165168.0         814316280.0         869382050.0         980203903.0        2062101717.0        1683636369.0         362165168.0         814316280.0         869382050.0         980203903.0        2062101717.0
Wiener process for Thermostat # 12       1 F T T  -5.2744056885085289E-01        1691304004.0        1517487438.0        1215860313.0         431690668.0         577521959.0         528614368.0         272317999.0         166758548.0         310112982.0         201045826.0        1680231254.0         118290799.0         272317999.0         166758548.0         310112982.0         201045826.0        1680231254.0         118290799.0
Wiener process for Thermostat # 13       1 F T T   7.1642372510362895E-01        2223374464.0        3166504610.0        3178545757.0        2086431269.0        3569234435.0         500748837.0        2245755202.0        1652682525.0        2865544364.0         721509566.0         209733568.0         592362218.0        2245755202.0        1652682525.0        2865544364.0         721509566.0         209733568.0         592362218.0