 # Version information for this restart file 
 # current date 2024-11-21 20:49:56.717
 # current working dir /scratch/work/courses/CHEM-GA-2671-2024fa/students/mr6966/comp-lab-class-2024-MR/Week12-IntroAIMD/Runs/Water
 # Program compiled at                              Sat Dec 12 18:27:15 EST 2020
 # Program compiled on                                         cs001.nyu.cluster
 # Program compiled for                                                nyu-intel
 # Source code revision number                                       git:8c64c6e
 &GLOBAL
   PRINT_LEVEL  LOW
   PROJECT_NAME water_aimd_1ns_every0.5fs
   RUN_TYPE  MD
   WALLTIME 21600
 &END GLOBAL
 &MOTION
   &GEO_OPT
     OPTIMIZER  BFGS
     MAX_ITER  100
     MAX_DR     3.0000000000000001E-03
     &BFGS
     &END BFGS
   &END GEO_OPT
   &MD
     ENSEMBLE  NVT
     STEPS  2000
     TIMESTEP     4.9999999999999994E-01
     STEP_START_VAL  216
     TIME_START_VAL     1.0800000000000009E+02
     ECONS_START_VAL    -1.1023558357480233E+03
     TEMPERATURE     3.0000000000000000E+02
     &THERMOSTAT
       TYPE  GLE
       REGION  MASSIVE
       &GLE
         NDIM  5
         A_SCALE     1.0000000000000000E+00
         A_LIST     1.8595758612559999E+02    2.7263853498399998E-01    1.1526100454610001E+01   -3.6414578262600003E+01 \
             2.3173375816020001E+02
         A_LIST    -2.7809524712060002E-01    8.5951591808710006E-05    7.2189048017650004E-01   -1.9844539343859999E-01 \
             4.2409257583420001E-01
         A_LIST    -1.4825808131210000E+01   -7.2189048017650004E-01    1.3590902121280000E+00    5.1498896280349999E+00 \
            -9.9949268450990001E+00
         A_LIST    -1.0372189126880000E+01    1.9844539343859999E-01   -5.1498896280349999E+00    2.6661910891169999E+01 \
             1.1507715495310000E+01
         A_LIST     2.1801346360420001E+02   -4.2409257583420001E-01    9.9949268450990001E+00   -1.1507715495310000E+01 \
             3.0958394565589998E+02
         &THERMOSTAT_ENERGY
              -2.8497775974177780E-03
               6.4585973410263018E-04
              -7.3567580526084182E-04
              -2.4076184410552230E-03
              -2.7891313716777192E-04
               2.5498140400615778E-03
              -4.3423045148995578E-03
               1.3424653307429501E-03
               6.4224308431240296E-03
              -8.4113424826790743E-04
               3.6716813715011254E-03
              -6.2211035420349427E-04
               1.0779587244560001E-03
              -1.3172694155713812E-04
               1.3302813018038978E-03
              -2.9077833307882875E-03
               5.0663984047207063E-03
              -2.5180843468030462E-04
               4.0917642203639878E-03
              -1.6443243682132556E-03
               1.3800231201924635E-04
              -4.3872687360545486E-04
              -1.9918422788828653E-03
               2.4062361898035656E-03
              -2.4915849736365779E-03
              -2.7578493007206733E-03
               1.3901933913357742E-03
               1.7484120911880211E-03
               1.3088049069168318E-03
               5.7743268147463010E-04
              -3.8861663296451106E-03
               4.6812377152185094E-04
               7.0169993135382877E-04
               1.9037050167735291E-03
              -4.7880436914025928E-03
               3.9476756189913966E-03
              -6.7891380606076844E-04
               2.4446054461868300E-04
               3.1195558590849668E-04
               1.8817561488631714E-03
              -1.3434176604370032E-03
              -4.1511398156742433E-03
              -1.3434201450107501E-03
               4.1154360422892495E-03
              -2.4226209052966132E-03
               1.4743518681933415E-03
              -1.2728672694522127E-03
               2.3922680620397678E-04
              -3.0372268996745723E-03
              -1.2300841152614885E-03
               6.3632364260448378E-04
               2.4899220201101855E-04
              -3.1747248395200731E-03
              -4.0656072276257010E-04
              -3.0649767341193808E-03
               2.1286933955583080E-04
               5.2426156649099023E-05
               1.6311755790695626E-03
               1.0114276526360273E-03
              -2.2387846120561477E-03
              -5.0905162286698439E-04
               5.5590649377491880E-03
              -1.3322027025407996E-03
              -4.6215044736097740E-04
              -6.3469202984970676E-04
               1.5152471458304232E-03
              -3.0514381047176842E-03
               2.5154189094561945E-03
              -1.1868995445468904E-03
               2.3096269582515028E-03
              -1.3216568853291154E-03
               3.4417974140331327E-04
              -1.0446733290509290E-03
               5.7214117463345491E-04
              -1.2997257889242962E-03
              -1.0770690099640098E-03
              -6.5261376895212584E-04
               2.2731998855611557E-03
               5.6915176548764717E-03
              -2.3158546664219289E-03
               4.0751350299403431E-04
              -5.3158087603213846E-04
              -9.1879451755710992E-04
              -3.8363465742265006E-04
               3.6912036698544095E-03
              -3.7225847778560187E-04
              -7.8015180670683673E-05
               1.1471251466542321E-03
               1.0010625857250800E-04
               5.1016966937480188E-04
               2.2944218325948876E-03
              -3.2563188727016273E-03
               1.7504850371605942E-03
               2.5730633841177582E-04
              -3.6688528323624865E-03
              -1.0710740443756992E-04
               1.5415349955658216E-04
               2.0178971301335036E-04
               2.2687396444551720E-03
               2.3082477416072043E-03
               9.4773840298749130E-05
              -1.9643123575538660E-03
              -1.1709560807290993E-03
               1.1736297989491881E-04
               4.7334630675845840E-03
              -3.5290837925818744E-03
              -4.5891056793579137E-04
               1.0373508306326987E-03
               2.9806028995058012E-03
              -1.0259441737279365E-03
               5.0370705014523504E-03
               6.4870359588748176E-04
              -9.3708006417020145E-04
              -7.9780934692813771E-04
               2.9386644315785074E-03
               3.1265326641016587E-03
              -9.5331276658185329E-03
               1.1524637456302015E-03
               1.7956461811473156E-03
              -1.3742712656233534E-04
              -1.1961789508317739E-04
               2.1057631315313924E-04
               2.9858055169155583E-03
              -1.8510567170869124E-03
              -7.0751677316728441E-03
               4.8497615241671589E-04
               1.4712628939315803E-03
               3.3931162823953604E-03
               8.2178505473169791E-04
               1.3448663598169368E-03
              -1.7406509973648841E-03
              -3.0872537096031947E-03
               6.4620911573946285E-04
              -8.3390128879542724E-03
               1.6941917177274229E-03
              -1.1880052004573042E-03
              -4.2843606660254874E-03
              -2.1156468768790552E-03
               1.2578478485695899E-03
              -1.7131888890100193E-06
               3.9965428450763601E-03
               1.6686663317924360E-03
               1.0081042598008203E-03
               9.9479131888908080E-04
              -6.7549254074140172E-04
               5.3047312728562535E-04
               5.9123082505062666E-04
               1.9060774079415954E-03
              -2.0302299538981273E-03
               1.9731305657902870E-03
               1.0063908739143118E-03
               1.9345521644611756E-03
              -1.1502277401825554E-03
              -1.9984291280605347E-03
               6.8719615713685469E-04
              -3.1448732365054182E-04
               1.4760542517597117E-03
               2.8938726978071584E-03
              -1.2308115841189301E-03
               2.1897727927661548E-03
              -2.1567575834536144E-03
              -3.9889761516774267E-03
              -5.8150774904582947E-04
               2.0499428375784666E-04
               1.0904227248664405E-03
               3.1015941133709412E-03
               2.0946295324381272E-03
              -4.8979208763022487E-05
              -5.8489288098153968E-03
               2.1366605945014033E-03
               7.9320563273093444E-06
              -2.2264903726411402E-04
               1.4528727348909185E-03
              -3.3949325700514423E-04
              -2.8355312689398787E-03
              -3.6834951906820558E-03
              -8.0783891208397016E-04
               5.2701425340240630E-03
              -4.9555967591727312E-04
               3.1240472523133924E-03
              -1.7130020766491405E-03
               7.6581551151621468E-04
               1.6633138708376280E-03
              -4.2531636917138326E-04
              -2.8473380692921853E-03
               4.1193563571717155E-04
              -1.1346750957984268E-03
               9.1950911453218982E-04
              -1.2053919311091283E-03
               8.8326202878880663E-04
               3.9272396557792636E-04
              -1.6062584607423889E-03
               4.0017429844954669E-03
              -3.5475938305357239E-03
               9.7990140000434739E-04
              -2.3492484589434882E-03
              -4.9516003740155247E-04
               1.5848429759931414E-04
              -2.8560392766421925E-04
              -5.6278699277060077E-04
               6.1239080284894551E-04
              -1.4070258674630381E-03
               2.3294423172122679E-03
               8.5788360734057034E-04
              -4.1975028231761406E-03
               2.3862448279935119E-03
              -8.2881431617156168E-04
               5.2887648751637369E-04
              -1.0959106816890937E-03
               3.2841332971102173E-03
              -3.9514812140597534E-04
              -1.0911227453470832E-03
               3.1966144154398947E-03
              -4.0611213239877550E-03
               4.5852978643328842E-03
               3.7619067397549827E-03
              -8.4019472171971876E-04
               1.7631601068710406E-03
              -3.8397017940335057E-03
              -2.7351038154179181E-03
               2.4665718819603158E-03
              -7.0242217148333964E-04
               1.3565711902342734E-03
               8.9480315758237749E-04
              -2.5422383709313183E-04
               6.8882675604375106E-04
              -5.4753199421495285E-04
               2.1461730263177686E-03
              -1.5076130646729776E-03
               3.1926161079859549E-03
              -2.5944665789903233E-03
               3.9521635153842369E-03
               6.6887168713755088E-04
              -1.3587023724256962E-04
               2.5813537277402598E-03
               5.3431978219233500E-04
              -1.9157408993140462E-03
               1.8787205275840164E-03
              -4.3294218966943116E-04
               2.1646574540087346E-03
              -1.0939796030490002E-03
               1.9007462514019726E-03
              -8.7178095726681514E-04
               3.7280385199899019E-04
               7.7799554299712650E-04
               1.0229057165377971E-03
              -2.4694899523406566E-04
               1.3205438276041071E-04
               2.3783741105533145E-04
              -3.1409058343114828E-05
               3.7499684563128434E-05
               1.8412808355982269E-03
              -1.0013770021323809E-04
              -1.2955082505126760E-03
              -1.4102032476808835E-03
              -2.5137633490123221E-03
              -3.6124489701106063E-04
              -3.6594821484111728E-05
               3.7988314325421857E-04
              -2.5216759106580257E-03
               4.6003542292675070E-03
               1.7499169311536531E-03
               2.1428881516869849E-03
               1.8709207042203061E-03
              -2.9035888410549010E-04
              -2.5080314162840064E-03
              -5.0454591582325839E-06
               7.1095360939477873E-04
               9.9662575694905889E-04
              -1.4874443503489511E-03
              -1.5833933434433768E-03
              -9.8399139545394458E-04
               9.8344595310815392E-04
              -5.0270013462160338E-04
               2.3658316321851268E-03
               1.2086399265241036E-03
              -6.8452579550357532E-03
              -7.0001865172304625E-04
               8.0692637984657685E-04
               4.9129955770709052E-04
               1.1649945813262087E-04
              -3.6781475744425906E-04
               3.2429072323530901E-03
              -1.8020649128218707E-03
              -4.7955833257706014E-03
               2.3831387988152049E-03
              -4.4142306999120969E-03
              -1.1798062305807583E-03
              -2.0324409031831541E-03
               6.0090195518897819E-04
              -1.1868841540280954E-03
               3.5093062090624820E-03
              -1.8177795417967354E-03
              -1.6452998856470069E-03
               7.7123133996872607E-04
               2.0013809632819252E-03
              -2.4094159972570719E-03
              -3.6462165145298355E-04
              -2.9555404327507545E-03
              -3.4254544067469436E-04
               2.4465913118392186E-03
               1.0510462436336273E-03
              -5.9502408989584605E-03
               1.4229711878038856E-03
               3.3075088323898543E-03
              -4.5941262204332725E-04
              -1.6679913318444729E-03
               1.4677624283173732E-04
               6.5664812686854466E-04
               1.6797194196736850E-03
              -5.1353407113341335E-04
              -6.0363055919713483E-03
               3.0075562228830473E-03
               2.8151384422700873E-03
              -5.7325467874009867E-04
               2.4082194650043584E-03
               1.2029712289199359E-03
               5.2011095978964977E-03
               1.1746744297977151E-03
              -4.3628853142865711E-03
               1.1809522756894722E-03
              -4.0449634074926069E-03
              -5.3605877373553955E-03
               2.3764426204097816E-03
              -1.5383061883345844E-04
               1.0126260602518517E-03
              -3.4862334760446756E-04
               2.5560022095983265E-03
              -4.8156297446945559E-04
              -2.3738480368931704E-03
              -2.9106577713160467E-03
              -2.2082737086382906E-03
               1.3361650601504274E-03
               8.8271987367589532E-04
               5.8551087274850652E-04
              -2.8930015865291973E-05
               3.6533076706354961E-03
               4.4230724973558216E-03
              -8.8764782602883884E-04
              -2.2706498763010469E-03
               1.2993837386076979E-03
               8.3401308569625401E-04
               2.3803428825021904E-03
               2.1046832652247068E-03
              -1.9866212867887425E-03
              -4.0519573885067916E-04
              -7.2712328081771499E-04
              -1.1019225142910763E-03
              -3.0990682673020542E-03
              -1.5418361248514959E-03
               2.0916964940975217E-03
               5.2618374993601666E-04
              -3.2599542693511870E-03
               3.0950126511290190E-04
              -3.1490564732463994E-03
               2.2757308500170252E-03
               1.6187068158442855E-03
              -1.5495151159119391E-03
              -1.3150023294785178E-03
               5.9444833748933017E-03
               2.7836948257058049E-06
              -2.6801046761696176E-04
              -2.7669555820964268E-03
              -3.4173070458781438E-03
               1.6753510091772621E-03
               1.4188511729585904E-03
               1.9697291704506114E-03
              -5.4671779637404218E-04
               7.8749517935390926E-04
               5.3371113630728368E-04
               3.3251757671741221E-03
              -2.4881789648087283E-03
               3.6909884607729021E-03
              -3.3909823707892819E-03
              -1.8966952967352389E-03
              -1.9687130702842276E-03
               4.7499217685077299E-04
               3.4537200525774432E-03
               1.3793781230470332E-03
              -1.1955520641961351E-03
               9.4583720011940449E-04
               4.0297536493394317E-03
               2.6861851455839678E-03
              -2.3631735231818482E-03
              -8.6165295077616898E-03
               2.4964614626612762E-03
              -9.2286197838037051E-04
              -4.4825117448391918E-03
              -9.2321410613744302E-04
              -2.6382221336190251E-04
               1.8339955623494358E-03
              -6.8364586989292893E-04
               1.8615297905340028E-03
               1.4987769521822307E-03
              -6.2823646555998968E-03
              -1.1888144002938047E-03
              -2.7385535021255182E-03
               2.1691135805692206E-03
              -3.6484439076810106E-05
              -1.6936507258184150E-03
              -2.6558374091474263E-03
               1.9314411707181715E-03
               1.5837273507033555E-03
              -1.7470761794576416E-03
               2.6593115398869135E-03
              -4.9879531868055537E-04
              -1.2068030968941401E-04
               2.1434588876499132E-03
              -4.9792079309408785E-03
              -8.4732868387553905E-04
               1.7054451186756831E-03
               8.4304810088601666E-04
               1.0756144584535162E-03
               4.3643733501603742E-03
              -3.0445824439197925E-03
              -4.4554664514775760E-04
              -8.9345355572398679E-05
              -2.4993708191780638E-03
              -4.6519355523847944E-03
               8.1970004740290585E-03
              -1.5447065543178174E-05
              -3.0231302793683326E-04
               3.0914477629670595E-03
               3.6443727533452309E-04
              -7.2970733237560329E-04
              -3.9644801779688847E-03
              -6.1897759242354213E-04
              -3.8190900857440068E-03
               1.9653191856919788E-03
               3.2393125312953449E-04
               1.3755099590602655E-03
              -4.6120433500039630E-03
               1.3825757617936135E-03
              -3.8198918218408764E-04
               1.3189271991361389E-03
              -2.0883762068745573E-03
              -9.3366778909803507E-04
               3.1239453473781123E-04
               2.8945485232382915E-03
               2.7243844963214803E-03
              -5.8651693941948468E-03
              -1.7330695160729069E-03
              -2.2802027457566997E-03
               1.1264738456953972E-03
               1.0718613742087527E-03
               2.4531631151681220E-03
              -1.1802395854250056E-03
              -3.4475923736788558E-03
               2.3679033209831544E-04
              -4.7025197876607815E-04
              -6.2198410526035828E-04
              -1.1513586538181907E-03
               1.5165804590285266E-03
               1.5810268817122016E-03
              -3.9211264636165111E-03
              -4.3926196051429899E-04
               5.8268419599161970E-03
              -6.8906934397821120E-04
              -2.7285262238883356E-03
               3.0886451192438299E-04
               1.2262537450324746E-03
              -7.9047360317496286E-04
              -2.1974487662561608E-05
              -1.9072340955705216E-03
               1.1251156487019597E-03
              -4.3320645100542723E-04
              -1.4310576993512309E-03
              -1.0988471833441491E-03
               5.0488644419519101E-04
               9.5147705392861933E-04
               3.8608489926327428E-04
               4.9539593366712820E-03
              -2.1686531182721186E-03
              -2.5743029717040477E-04
               4.8437091662670521E-03
               8.2080092664073105E-04
               1.7285473842980491E-03
              -1.0663804273408268E-03
              -1.9343213136596156E-03
               1.9393805185522492E-03
               6.0185507820618676E-03
              -2.0439243585601197E-04
              -1.2471391521273324E-03
               1.2046371965296638E-03
              -9.7481474669888394E-05
              -1.6153937796377048E-03
              -1.5864846125451229E-04
              -4.1502722728413467E-03
              -4.5471969170034139E-04
               1.0836863217716501E-03
              -1.6375262655348447E-04
               1.9925137451541159E-03
              -2.5702851593852084E-03
               1.1661784312972958E-03
               3.0498679762324165E-03
               2.5223748895379190E-03
              -7.6695016812025586E-04
              -8.6130820797844401E-04
              -7.1263825827023357E-04
              -3.4612049914718068E-03
               3.7254084849749737E-03
              -3.6980850945271559E-04
               4.6561454058045143E-04
              -3.5831852856174451E-03
               4.5126513452831249E-04
              -1.2948220910538647E-03
               4.1409989106688814E-03
               5.6886732721491242E-04
               5.2003594811650552E-04
              -3.8576843215431286E-03
               3.1472115228658326E-04
               6.2648728381894383E-03
              -6.4288832641994555E-03
              -1.0905772545373150E-03
              -1.8820040738262353E-04
               1.3443552336683121E-03
               2.5670824558292824E-03
              -2.3120961920623721E-03
              -1.9080113439173139E-03
              -2.8738447087356997E-04
               2.0639451475121125E-03
              -3.5515035624545748E-03
               1.3789181607152014E-03
               1.1586326344304014E-03
               2.1152290453270075E-03
              -8.9226610918872128E-04
              -1.9575469537749658E-03
              -2.5612432000402443E-03
               2.5803504387374361E-03
               1.8477161678043968E-03
              -1.5599243381192731E-03
              -6.8602288981068640E-04
               2.8870029356752421E-05
               1.1337775598205363E-04
               1.1530766381148273E-03
              -5.0346202291371754E-03
               3.2333138368181519E-03
              -5.1864698292477318E-05
              -2.4717529738650787E-03
               1.0104095288760502E-04
               1.3240885812314852E-03
               3.6857800361116805E-04
               4.2208734070739613E-03
               4.2363666200551553E-04
               4.8338180836366573E-04
               1.2733742827741839E-03
              -2.0340584207114124E-03
               1.6215313167744795E-03
              -9.0942259656815079E-04
               2.0396203667148076E-04
              -2.9502824999842144E-03
              -2.2132954256296965E-03
              -6.5681749388239719E-04
              -3.3423466584211960E-03
               2.5073222093416744E-03
              -1.7897718833469213E-03
               1.7640608547521567E-03
               3.6330670560891032E-03
               4.4396940847022592E-03
               6.3748827627298135E-04
              -1.3418398098940369E-03
              -4.5081016988045364E-03
              -3.7413299618251133E-03
               3.5597200928388886E-03
               2.1924154071466819E-03
               3.0561925222911453E-03
              -2.7232398528137690E-03
              -1.2982833308614022E-03
               3.9377272509794802E-04
              -2.2558348892857513E-03
              -3.7325139388136399E-03
               3.1376694361930366E-03
               2.1399391209032757E-03
               4.2833881719917342E-03
              -3.4679809389399877E-03
               4.1333981927428555E-04
         &END THERMOSTAT_ENERGY
         &RNG_INIT
Wiener process for Thermostat # 1        1 F T T   6.4708506985809777E-01        3637964846.0          87953664.0        4205992719.0        2097080402.0        1875822525.0        1628508733.0             12345.0             12345.0             12345.0             12345.0             12345.0             12345.0             12345.0             12345.0             12345.0             12345.0             12345.0             12345.0
Wiener process for Thermostat # 2        1 F T T  -3.6654246231621113E-01        3182896914.0        2792104520.0         225832140.0        1706960238.0        1797343032.0         680326217.0        3692455944.0        1366884236.0        2968912127.0         335948734.0        4161675175.0         475798818.0        3692455944.0        1366884236.0        2968912127.0         335948734.0        4161675175.0         475798818.0
Wiener process for Thermostat # 3        1 F T T   1.3995895926235222E+00        1546932292.0        3954719766.0        4192466554.0         137273508.0        1495036868.0        3249484847.0        1015873554.0        1310354410.0        2249465273.0         994084013.0        2912484720.0        3876682925.0        1015873554.0        1310354410.0        2249465273.0         994084013.0        2912484720.0        3876682925.0
Wiener process for Thermostat # 4        1 F T T  -3.3302940091015382E-01         368526210.0        1656909644.0        3224417080.0         257785875.0        1566406065.0        3310153255.0        2338701263.0        1119171942.0        2570676563.0         317077452.0        3194180850.0         618832124.0        2338701263.0        1119171942.0        2570676563.0         317077452.0        3194180850.0         618832124.0
Wiener process for Thermostat # 5        1 F T T  -1.7562738403821504E-03        2304026812.0         778726417.0        2331068813.0        2667132956.0        3013319821.0        1537554142.0        1597262096.0        3906379055.0        3312112953.0        1016013135.0        4099474108.0         275305423.0        1597262096.0        3906379055.0        3312112953.0        1016013135.0        4099474108.0         275305423.0
Wiener process for Thermostat # 6        1 F T T   2.0866945219183364E-01        3950221292.0        2264165912.0        1876286624.0        1051079431.0        3959783113.0        2513398279.0          97147054.0        3131372450.0         829345164.0        3691032523.0        3006063034.0        4259826321.0          97147054.0        3131372450.0         829345164.0        3691032523.0        3006063034.0        4259826321.0
Wiener process for Thermostat # 7        1 F T T   4.3847738472210873E-01         423999680.0         802353341.0         978624380.0          60830260.0        1032016742.0         642761729.0         796079799.0        2105258207.0         955365076.0        2923159030.0        4116632677.0        3067683584.0         796079799.0        2105258207.0         955365076.0        2923159030.0        4116632677.0        3067683584.0
Wiener process for Thermostat # 8        1 F T T  -1.9931515160201969E+00        2589171921.0        3535757057.0          26605252.0         190334413.0        1778753953.0        3341438799.0        3281794178.0        2616230133.0        1457051261.0        2762791137.0        2480527362.0        2282316169.0        3281794178.0        2616230133.0        1457051261.0        2762791137.0        2480527362.0        2282316169.0
Wiener process for Thermostat # 9        1 F T T  -1.3912036215333712E-01         931518300.0        1566598385.0        1741846462.0        1837048893.0        3796868491.0         273783373.0        3777646647.0        1837464056.0        4204654757.0         664239048.0        4190510072.0        2959195122.0        3777646647.0        1837464056.0        4204654757.0         664239048.0        4190510072.0        2959195122.0
Wiener process for Thermostat # 10       1 F T T  -3.6506808788246919E-01        2716860806.0        3030992606.0        1624589340.0        1473511770.0        1244244451.0        2600912802.0        4215590817.0        3862461878.0        1087200967.0        1544910132.0         936383720.0        1611370123.0        4215590817.0        3862461878.0        1087200967.0        1544910132.0         936383720.0        1611370123.0
Wiener process for Thermostat # 11       1 F T T  -6.6846001335970606E-01        1042749716.0         257607531.0         248137533.0        1941621628.0        3912706494.0        4064901555.0        1683636369.0         362165168.0         814316280.0         869382050.0         980203903.0        2062101717.0        1683636369.0         362165168.0         814316280.0         869382050.0         980203903.0        2062101717.0
Wiener process for Thermostat # 12       1 F T T   6.3423440730143821E-01         723348630.0         303362450.0        2731245314.0        1362536358.0        1025422336.0         293568541.0         272317999.0         166758548.0         310112982.0         201045826.0        1680231254.0         118290799.0         272317999.0         166758548.0         310112982.0         201045826.0        1680231254.0         118290799.0
Wiener process for Thermostat # 13       1 F T T   3.3027268252167818E-01        3458682509.0         800942631.0        1296290089.0        3268379999.0        1965798861.0        4270551916.0        2245755202.0        1652682525.0        2865544364.0         721509566.0         209733568.0         592362218.0        2245755202.0        1652682525.0        2865544364.0         721509566.0         209733568.0         592362218.0