 # Version information for this restart file 
 # current date 2024-11-21 20:51:50.280
 # current working dir /scratch/work/courses/CHEM-GA-2671-2024fa/students/mr6966/comp-lab-class-2024-MR/Week12-IntroAIMD/Runs/Water
 # Program compiled at                              Sat Dec 12 18:27:15 EST 2020
 # Program compiled on                                         cs001.nyu.cluster
 # Program compiled for                                                nyu-intel
 # Source code revision number                                       git:8c64c6e
 &GLOBAL
   PRINT_LEVEL  LOW
   PROJECT_NAME water_aimd_1ns_every0.5fs
   RUN_TYPE  MD
   WALLTIME 21600
 &END GLOBAL
 &MOTION
   &GEO_OPT
     OPTIMIZER  BFGS
     MAX_ITER  100
     MAX_DR     3.0000000000000001E-03
     &BFGS
     &END BFGS
   &END GEO_OPT
   &MD
     ENSEMBLE  NVT
     STEPS  2000
     TIMESTEP     4.9999999999999994E-01
     STEP_START_VAL  218
     TIME_START_VAL     1.0900000000000009E+02
     ECONS_START_VAL    -1.1023558357480233E+03
     TEMPERATURE     3.0000000000000000E+02
     &THERMOSTAT
       TYPE  GLE
       REGION  MASSIVE
       &GLE
         NDIM  5
         A_SCALE     1.0000000000000000E+00
         A_LIST     1.8595758612559999E+02    2.7263853498399998E-01    1.1526100454610001E+01   -3.6414578262600003E+01 \
             2.3173375816020001E+02
         A_LIST    -2.7809524712060002E-01    8.5951591808710006E-05    7.2189048017650004E-01   -1.9844539343859999E-01 \
             4.2409257583420001E-01
         A_LIST    -1.4825808131210000E+01   -7.2189048017650004E-01    1.3590902121280000E+00    5.1498896280349999E+00 \
            -9.9949268450990001E+00
         A_LIST    -1.0372189126880000E+01    1.9844539343859999E-01   -5.1498896280349999E+00    2.6661910891169999E+01 \
             1.1507715495310000E+01
         A_LIST     2.1801346360420001E+02   -4.2409257583420001E-01    9.9949268450990001E+00   -1.1507715495310000E+01 \
             3.0958394565589998E+02
         &THERMOSTAT_ENERGY
              -3.0185915527885122E-03
               6.4017820656968143E-05
              -7.3410338747620873E-04
              -2.3158842607499137E-03
              -1.7402184112546592E-04
               2.6200062654256153E-03
              -4.8293944310715568E-03
               1.4063434311336383E-03
               6.3902020056608704E-03
              -6.1448849002503038E-04
               3.6246331123487739E-03
              -6.1720985019774431E-05
               9.2473394103148815E-04
              -5.0325995927919703E-04
               1.2465957762110458E-03
              -2.8136579043806466E-03
               4.6813833645468709E-03
              -6.8599946923999318E-04
               4.3254814781421552E-03
              -1.6042651533726261E-03
              -1.9529460323359078E-04
              -6.0227504811346958E-04
              -2.4315985094144387E-03
               2.7183055449259931E-03
              -2.6163201771430850E-03
              -2.5228286180619518E-03
               2.7232551854954852E-03
               1.7521437419332610E-03
               1.4238781467521132E-03
               5.2753889738446386E-04
              -3.3940777547955599E-03
               2.7689651099146919E-04
               6.4001398878948219E-04
               1.9125021036308565E-03
              -4.7599116294052193E-03
               4.2637970894241067E-03
              -7.3726989425425434E-04
              -7.4793636249586139E-04
              -1.4850354173151295E-03
               2.3369078443835193E-03
              -8.6106266536292893E-04
              -4.0409304408569012E-03
              -1.4685883326588673E-03
               3.9087504550019275E-03
              -2.5347536458750937E-03
               1.5066368849718113E-03
              -1.2585236025354839E-03
              -5.8385800561116272E-04
              -1.9184428819624946E-03
              -1.1187519858316950E-03
               1.5614977977178356E-04
              -3.4250675043984559E-04
              -3.2248394406794141E-03
              -2.3630864079589959E-04
              -2.8414443231473412E-03
               4.5066242931478913E-04
              -1.3559460603953350E-04
               1.6659746804113984E-03
               1.1599540476028569E-03
              -2.2238609180004376E-03
              -4.7946725504095127E-04
               5.0120353202002584E-03
              -1.2535219886326888E-03
              -7.0960645786444037E-04
              -1.4298362829612042E-03
               1.1315281190861749E-03
              -2.8870135314289272E-03
               2.7215795217238976E-03
              -1.7159469395991451E-03
               2.4527753456157304E-03
              -5.1749366895616710E-04
               3.5014239249217755E-04
              -1.2029725488952828E-03
               1.2747049158765597E-03
              -6.9342995878634531E-04
              -1.0202745103765195E-03
              -1.4289878275507129E-03
               7.4039715101473984E-04
               5.7514000039164664E-03
              -1.8815927741778963E-03
               6.0675748354638845E-04
              -1.2681940291043509E-03
              -1.3028482015966414E-03
              -2.2381967992332876E-03
               3.8119008861977588E-03
              -3.7364956940949936E-04
               8.1931963142821721E-05
               1.3435750114943299E-03
              -1.0174492400731564E-03
               4.0969961798869041E-04
               2.7066763679233653E-03
              -3.3241857340048950E-03
               2.0363911425819517E-03
               2.1137304016906336E-04
              -3.7809843392397906E-03
               2.2994592641652540E-04
              -8.8110749891157059E-05
               9.3942956455382332E-05
               2.1396235525775777E-03
               2.0107643721212357E-03
               3.0701418158711078E-04
              -1.8058495166017080E-03
              -1.1492277811400774E-03
               3.0503402130060725E-04
               4.2697381821965030E-03
              -2.0481618322000430E-03
              -9.2464997100571945E-04
               1.0597226791169549E-03
               3.1585163434695970E-03
              -9.8476893232736225E-04
               5.6041867971429226E-03
               1.0855331025337004E-03
              -9.0802287309231717E-04
              -6.2230067503048561E-04
               2.5407241097624759E-03
               3.2109290660481578E-03
              -1.0018995327507357E-02
               1.1454736229308295E-03
               1.8187427476428096E-03
              -1.7184632713362110E-04
               5.6816970707696684E-05
              -6.0660319373991489E-04
               2.8788226479902661E-03
              -1.4485457990440394E-03
              -6.7069075655475470E-03
               1.4816798103510674E-03
               1.4146760210510265E-03
               3.3461720497195016E-03
               1.1385354371745171E-03
               1.0298896929199922E-03
              -1.7969117019351387E-03
              -2.2875307340729780E-03
              -1.3688458838112874E-04
              -5.5798767286040444E-03
               1.3475638952068225E-03
              -1.9540340118977067E-03
              -2.3691747663339073E-03
              -2.1225270487127499E-03
               9.6850356619359766E-04
               9.5993620635589647E-05
               3.2765517298553029E-03
               1.5954491182945474E-03
               1.0063291152330508E-03
               9.2806484299742787E-04
              -8.4334139598393363E-04
               3.9663971673099840E-05
               5.0570720592582781E-04
               1.6686263839103958E-03
              -2.2038185031588620E-03
               2.8902499291503301E-03
               1.0282997658474424E-03
               1.8631482099492574E-03
              -9.2554393847464546E-04
              -1.2212676561550050E-03
               7.8765192012080951E-04
               1.0808771168763063E-04
               2.0888091793748007E-03
               3.8033750969757984E-03
              -1.2311499198837752E-03
               1.8253747247332502E-03
              -2.4363991687538391E-03
              -4.1442432470614327E-03
              -1.3039203368265655E-04
              -5.5264341904092470E-04
               1.4589917728889802E-03
               3.4168752782904903E-03
               1.9340042973777292E-03
               5.3793356075676501E-04
              -5.8159657191324664E-03
               2.2730878882161174E-03
               7.0462310433628953E-04
              -2.4802776639857698E-04
               2.2839624045776041E-03
              -1.0998149272614167E-04
              -2.1764755284352766E-03
              -2.2115053047191591E-03
              -7.6036236311273540E-04
               5.2934440025234125E-03
              -5.8183411686636190E-04
               3.1047966119308805E-03
              -1.9432188505813294E-03
               6.6660093595924256E-04
               1.6986390160817629E-03
              -9.6348126396004954E-04
              -2.9412084270890953E-03
              -1.1193817409744079E-04
              -1.5495737696424473E-03
               1.1237111582322133E-03
              -2.3983230015086547E-03
               1.3894089899615649E-03
               6.2422102593745162E-04
              -2.0435479650601301E-03
               3.9929521365122097E-03
              -3.6291563875350832E-03
               1.1052545075337099E-03
              -2.0093691503254162E-03
              -3.6469207802277196E-05
              -2.3360010833820661E-04
              -2.9494281910516355E-04
              -2.4507077304488658E-04
              -4.2010266126411719E-04
              -2.2750395793246750E-03
               1.3340981950614355E-03
               9.3576430023033057E-04
              -4.1525956895533114E-03
               2.9514570001919248E-03
              -8.7187958802808390E-04
               1.9194890598723960E-04
              -1.0546906005831148E-03
               3.6844803869263195E-03
              -3.9253924014600770E-04
               2.2956773118876770E-04
               2.7471635270945650E-03
              -3.9992538208223878E-03
               5.1484563847586182E-03
               3.4457237751274552E-03
              -9.6241258472191103E-04
               1.9897963268421279E-03
              -2.4214810373993276E-03
              -1.7923054915146277E-03
               1.7768552416099260E-03
              -7.4305103728628994E-04
               2.4295758607230356E-03
               7.3387033539222774E-04
              -3.1234215146571455E-04
               7.1254594441835621E-04
              -5.3000579727675607E-04
               2.1269339867663862E-03
              -2.2735031387092677E-03
               2.8344347588142929E-03
              -2.3723944831065603E-03
               2.7592629120159933E-03
               9.0370103230810555E-04
               8.3967388227412177E-05
               2.5414040278634296E-03
               4.2500955689908778E-04
              -2.7583430347900072E-03
               1.5859875670701249E-03
              -7.7084801174419695E-04
               2.8489833799904530E-03
               1.9844209222420403E-05
               2.1786370355447050E-03
              -1.2656709469104708E-03
               9.4377860183797067E-04
              -5.4235200910421897E-04
               1.2855691457828284E-03
              -6.7255878374554933E-04
              -5.3435608680278397E-04
              -5.7724776548347887E-05
              -1.1117036832844970E-03
               5.2882967666094578E-04
               1.8224288337712268E-03
              -4.8933090556886406E-05
              -1.2608878961262717E-03
              -1.5505801695110751E-03
              -1.9762186239971834E-03
              -3.9647821569215686E-04
              -1.2162376734866139E-03
               5.1006854129019845E-04
              -2.5361524843626176E-03
               4.1266383429910333E-03
               1.8194682919793937E-03
               2.0741225198445262E-03
               1.8208111879372390E-03
              -2.8344837487026309E-04
              -1.8683866345565756E-03
              -1.6785631203151486E-04
               6.1750588056379274E-04
               1.0906782953675981E-03
              -1.1339417725780953E-03
              -8.5091340627132790E-04
              -1.5431465410542986E-03
               1.1497831918255059E-03
              -3.4550615369168577E-04
               2.1337182942155575E-03
               1.1413796272748116E-03
              -6.9116696432835649E-03
              -9.5435975310569987E-04
               1.3543020250922303E-03
               6.6495553430639075E-04
               4.5759155152689325E-04
               1.4210017702243337E-04
               3.1498729167452719E-03
              -1.6338236353820096E-03
              -4.5952090116340664E-03
               2.1115627053654375E-03
              -4.3950191795836570E-03
              -9.0884374130927330E-04
              -9.5413237870125818E-04
               2.1559109921458577E-04
              -5.8109225471454748E-04
               3.4915412794613303E-03
              -1.4287821485956683E-03
              -1.8742535527861010E-03
               7.0408181746144300E-04
               2.3963774742267233E-03
              -3.2292589747087508E-03
              -4.0549710505115121E-04
              -2.7831717155232492E-03
              -3.7412019590302192E-04
               2.0292221863554968E-03
               1.6938319240783119E-03
              -6.0102271965796587E-03
               1.3853631503625877E-03
               3.5006245090884874E-03
              -5.6357249246729202E-04
              -1.5691238671125764E-03
               1.8342165961382969E-04
               6.5950824000894886E-04
               1.7754587966678356E-03
               5.4335302696480550E-04
              -6.1046553091892173E-03
               3.3659198310630987E-03
               2.7694297892847911E-03
              -3.7169450155182199E-04
               2.9809876969204567E-03
               2.4982730986192799E-03
               5.0462673349297490E-03
               3.6514403622622815E-05
              -4.3003387690848365E-03
               1.1611325189387310E-03
              -3.1248418964019810E-03
              -5.6831544383326481E-03
               3.1717831955428290E-03
              -1.2947192962733904E-04
               1.0295604691502778E-03
              -2.1736198211785415E-04
               2.7507904386789668E-03
              -4.5060577504624027E-04
              -2.7888644898717420E-03
              -2.7735866549531978E-03
              -2.2155692050833896E-03
              -4.2970822919030085E-04
               7.5322050794807572E-04
               6.0512740200394869E-04
               5.4857178202616380E-06
               3.7012757976359716E-03
               4.2169967979560196E-03
              -6.2614997709088379E-04
              -2.8767339100310603E-03
               1.4390312796463355E-03
               7.4502987839401998E-04
               2.0928387427131571E-03
               2.1725625545013245E-03
              -2.4589971321863054E-03
              -5.1407268429311205E-04
              -8.8769862560360063E-04
              -1.1484804696349571E-03
              -2.6537257555057127E-03
              -1.8384562842030205E-03
               2.4154648934099241E-03
               6.0959927114908805E-04
              -3.2874333166960919E-03
               7.5093810460238777E-04
              -2.7203526578193859E-03
               2.2583027915206652E-03
               1.6966107207151656E-03
              -9.8319709198187643E-04
              -3.5183469382838231E-04
               5.7826804500919309E-03
               1.4664158696858719E-04
              -6.2405620168457735E-04
              -2.0813470231692611E-03
              -3.3607103335142924E-03
               1.4049011025125918E-03
               1.8145303282733596E-03
               1.9333848606393502E-03
              -4.6065017545650382E-04
               8.0646755346018486E-04
               1.2467358623424055E-03
               2.9199924914246325E-03
              -2.6664289531918559E-03
               2.9895988387332231E-03
              -3.8906814709656818E-03
              -2.9427981394734106E-03
              -2.8632986804498447E-03
               9.2798024592590455E-04
               3.3733042141788918E-03
               1.3948244279662274E-03
              -1.2072936002830484E-03
              -1.3652065294374465E-04
               3.3390862191191072E-03
               2.8190573293633706E-03
              -2.9731354714644907E-03
              -8.5580294780641074E-03
               2.5096513268870074E-03
               1.2986495470439208E-04
              -4.6024975031174233E-03
              -9.7694035918849463E-04
              -2.7122909165779746E-06
               1.9068599491824467E-03
              -6.8947306776102988E-04
               1.8734935640323433E-03
               1.4998030942812346E-03
              -5.3429551732649249E-03
              -1.1651480032500085E-03
              -2.6343920920380063E-03
               2.0564784797149228E-03
               4.7538613918708504E-04
              -1.6792319890607031E-03
              -1.8562425926272905E-03
               1.7646717380064901E-03
               1.5146431848792885E-03
              -1.2626374090330280E-03
               3.2486517731528130E-03
              -2.1366038370394992E-04
              -2.1494880632400050E-04
               2.1795569173985391E-03
              -5.5230726835076077E-03
              -9.2745820779259090E-04
               1.1131561344232608E-03
               9.6996046270524518E-04
               1.0787705698585793E-03
               4.8802852880757887E-03
              -3.0945372981755425E-03
              -2.5868146793199092E-04
               4.6924495454562875E-05
              -1.7727104606171491E-03
              -4.6640708772606454E-03
               8.0926556307832648E-03
               8.5529414490254606E-05
              -5.9809827642534510E-04
               3.1472309291880000E-03
               1.1724031575394759E-03
              -8.4121281003699834E-04
              -3.9401107707499657E-03
              -6.5145531355328252E-04
              -3.6661813550785374E-03
               2.2734665936079089E-03
               1.5120596813446357E-03
               7.4030370231609058E-04
              -4.6434119987808506E-03
               1.8064816317373662E-03
              -8.2462192741034653E-04
               1.2428842828418889E-03
              -1.9755435741250168E-03
              -2.2095783103341437E-04
               5.8085157094183424E-04
               2.9910327738894597E-03
               5.0742124604955859E-03
              -5.9004298087175257E-03
              -1.4597758182759350E-03
              -1.7451446190790980E-03
               1.0919339950944259E-03
               8.9173166723772253E-04
               2.7494979067288470E-03
              -1.0384794330919240E-03
              -3.6784154181984489E-03
              -3.9881181710220442E-04
              -6.8536060859274931E-04
               5.9085866191466857E-04
              -1.2317907843751993E-03
               1.5066053612644845E-03
               1.7054166831932422E-03
              -3.9862438697552093E-03
              -3.6767620300612308E-04
               5.8874911013115806E-03
              -3.1960168745434153E-04
              -3.2658270734983313E-03
              -4.1799439242068968E-04
               6.2407482679353388E-04
              -7.0584868607523235E-04
               2.8045626052887256E-04
              -1.7875615676435550E-03
               9.0147389306104533E-04
              -4.5574089643113630E-04
              -1.4281425648054839E-03
              -1.0962237540096894E-03
               5.6911795545329792E-04
               8.9478845028240716E-04
              -4.6359296490902093E-04
               5.5752222904942705E-03
              -1.9548232309488812E-03
               4.9387413596444114E-04
               5.2614339016053020E-03
               6.2423415957328578E-04
               1.5722088275234749E-03
              -1.0591471738224552E-03
              -1.4226905107911265E-03
               2.5786856934491677E-03
               6.0037575571109010E-03
              -9.6004106478456597E-06
              -1.2432469748517240E-03
               1.1099470145424564E-03
              -2.8305020032835804E-05
              -1.3120305108015387E-03
              -3.9494338398925861E-04
              -4.3546188982964964E-03
              -1.4991462690774407E-03
               9.2218918592621335E-04
              -3.0676410024142790E-04
               1.8645385201644957E-03
              -2.5644100590356531E-03
               1.3159098892934686E-03
               3.4417043581498174E-03
               2.4080939488302705E-03
              -1.1294231349587482E-03
              -8.3979213743036192E-04
              -9.3228176930120941E-04
              -3.9145612169155762E-03
               4.3028176909331341E-03
              -5.1169163975716466E-04
               2.0622970531158821E-04
              -3.5670160359408650E-03
               4.7031205426602838E-04
              -1.3324144171103359E-03
               3.4328265052285187E-03
               5.2392570565232657E-04
               6.6603228715642407E-04
              -3.6679100522639301E-03
               3.1676694237802046E-04
               6.2590546412719895E-03
              -6.6175936782247686E-03
              -8.7267989826011712E-04
              -3.0114962243738355E-04
               1.2179876729013384E-03
               2.3541572550143186E-03
              -1.9958457303070245E-03
              -1.3814067832045032E-03
              -3.6307150335448783E-04
               2.2213693362893540E-03
              -3.4689129491387014E-03
               1.1646663523605159E-03
               6.9368168567313299E-04
               2.1263639747154434E-03
              -1.5786763700530556E-04
              -2.3150609481636464E-03
              -2.6516731331857478E-03
               2.3729602187590741E-03
               2.1425412964822142E-03
              -1.6778301480272213E-03
              -9.6993321371792245E-04
               7.6238809547438401E-05
               1.8312135158809610E-04
               1.2985252575583009E-03
              -4.1044848833007965E-03
               2.6583412781005979E-03
               9.9522160442254833E-05
              -1.8986991211517330E-03
               2.0838373706209625E-04
               1.2908174308254765E-03
               3.1483423875112515E-04
               3.6701485131568810E-03
               5.8279987801478496E-04
               5.0800397459111130E-04
               1.0599849498999655E-03
              -1.9554477094835738E-03
               1.5930154063807406E-03
              -1.0064708253773819E-03
               1.4300454145860001E-03
              -2.9409216201548619E-03
              -2.4249392325038973E-03
              -5.5363261757833599E-04
              -3.1360692709501998E-03
               2.6126585595399915E-03
              -1.8647953600446833E-03
               1.2784249961646098E-03
               3.5105576584506396E-03
               3.6314375988010491E-03
               8.7033611501304822E-04
              -1.0186750922551279E-03
              -4.6062849352261209E-03
              -3.3379366087784136E-03
               3.9739768460091626E-03
               2.5692967483037575E-03
               2.9618387459867208E-03
              -2.4254391931807064E-03
              -2.6852359068542178E-03
               3.5486022134380860E-04
              -2.3896247469600475E-03
              -3.7873029912865457E-03
               2.7493398586133427E-03
               1.9197219753837695E-03
               3.9588960019955278E-03
              -3.4562575513852143E-03
               3.7283997364986486E-05
         &END THERMOSTAT_ENERGY
         &RNG_INIT
Wiener process for Thermostat # 1        1 F T T  -1.4489634904770408E+00         592071061.0        1287866398.0        3840603727.0        2753160962.0         251657740.0        3531858732.0             12345.0             12345.0             12345.0             12345.0             12345.0             12345.0             12345.0             12345.0             12345.0             12345.0             12345.0             12345.0
Wiener process for Thermostat # 2        1 F T T   7.1580890680894904E-01        3138857995.0        1466968861.0        2908550968.0        2784930502.0        2803266320.0        3595452803.0        3692455944.0        1366884236.0        2968912127.0         335948734.0        4161675175.0         475798818.0        3692455944.0        1366884236.0        2968912127.0         335948734.0        4161675175.0         475798818.0
Wiener process for Thermostat # 3        1 F T T  -9.2120454968018950E-01          61473274.0         353064902.0         410091092.0        2865056453.0        3719878499.0        3054097576.0        1015873554.0        1310354410.0        2249465273.0         994084013.0        2912484720.0        3876682925.0        1015873554.0        1310354410.0        2249465273.0         994084013.0        2912484720.0        3876682925.0
Wiener process for Thermostat # 4        1 F T T  -1.6440402235530123E+00        2878708079.0         802197993.0        3106943819.0        3954349037.0        4040133063.0        1906087210.0        2338701263.0        1119171942.0        2570676563.0         317077452.0        3194180850.0         618832124.0        2338701263.0        1119171942.0        2570676563.0         317077452.0        3194180850.0         618832124.0
Wiener process for Thermostat # 5        1 F T T   2.3721896687428781E-01         868112440.0         197737430.0        3967642863.0        1216024080.0         527784622.0        4252889463.0        1597262096.0        3906379055.0        3312112953.0        1016013135.0        4099474108.0         275305423.0        1597262096.0        3906379055.0        3312112953.0        1016013135.0        4099474108.0         275305423.0
Wiener process for Thermostat # 6        1 F T T   9.5038483198961754E-01         911189765.0        2395153355.0        1476990911.0        1011675514.0        3768609210.0        2531353964.0          97147054.0        3131372450.0         829345164.0        3691032523.0        3006063034.0        4259826321.0          97147054.0        3131372450.0         829345164.0        3691032523.0        3006063034.0        4259826321.0
Wiener process for Thermostat # 7        1 F T T   7.3396373928854219E-01        3350737331.0        1836718967.0        2165276919.0        1246297540.0        3425765754.0        3692827217.0         796079799.0        2105258207.0         955365076.0        2923159030.0        4116632677.0        3067683584.0         796079799.0        2105258207.0         955365076.0        2923159030.0        4116632677.0        3067683584.0
Wiener process for Thermostat # 8        1 F T T   1.6274160143463490E-01        2490514468.0         897164965.0        3293923616.0        2472184224.0        2393455429.0        1548814514.0        3281794178.0        2616230133.0        1457051261.0        2762791137.0        2480527362.0        2282316169.0        3281794178.0        2616230133.0        1457051261.0        2762791137.0        2480527362.0        2282316169.0
Wiener process for Thermostat # 9        1 F T T   1.3189832921746361E+00        3807687948.0        4147147068.0        1673374809.0        2242328896.0         935137935.0         632374068.0        3777646647.0        1837464056.0        4204654757.0         664239048.0        4190510072.0        2959195122.0        3777646647.0        1837464056.0        4204654757.0         664239048.0        4190510072.0        2959195122.0
Wiener process for Thermostat # 10       1 F T T  -1.0393047612659943E-01        3096792711.0        2340161611.0        4221555549.0        3340936172.0         945065749.0         839394754.0        4215590817.0        3862461878.0        1087200967.0        1544910132.0         936383720.0        1611370123.0        4215590817.0        3862461878.0        1087200967.0        1544910132.0         936383720.0        1611370123.0
Wiener process for Thermostat # 11       1 F T T   1.0574490291792222E+00        1374008838.0        3710071001.0        1682474650.0        3337737770.0         372883571.0         637299492.0        1683636369.0         362165168.0         814316280.0         869382050.0         980203903.0        2062101717.0        1683636369.0         362165168.0         814316280.0         869382050.0         980203903.0        2062101717.0
Wiener process for Thermostat # 12       1 F T T   5.8264273463193261E-01         213283450.0        3292836652.0         617006536.0        1521304974.0        4163748627.0        1039299984.0         272317999.0         166758548.0         310112982.0         201045826.0        1680231254.0         118290799.0         272317999.0         166758548.0         310112982.0         201045826.0        1680231254.0         118290799.0
Wiener process for Thermostat # 13       1 F T T   3.0430727417739383E+00        2683274508.0        2827850427.0        3980240514.0          92057044.0         493011565.0         314700979.0        2245755202.0        1652682525.0        2865544364.0         721509566.0         209733568.0         592362218.0        2245755202.0        1652682525.0        2865544364.0         721509566.0         209733568.0         592362218.0