 # Version information for this restart file 
 # current date 2024-12-01 21:07:36.708
 # current working dir /scratch/work/courses/CHEM-GA-2671-2024fa/students/mr6966/comp-lab-class-2024-MR/Week12-IntroAIMD/Runs/Protons
 # Program compiled at                              Sat Dec 12 18:27:15 EST 2020
 # Program compiled on                                         cs001.nyu.cluster
 # Program compiled for                                                nyu-intel
 # Source code revision number                                       git:8c64c6e
 &GLOBAL
   PRINT_LEVEL  LOW
   PROJECT_NAME water_aimd_1ns_every0.5fs
   RUN_TYPE  MD
   WALLTIME 21600
 &END GLOBAL
 &MOTION
   &GEO_OPT
     OPTIMIZER  BFGS
     MAX_ITER  100
     MAX_DR     3.0000000000000001E-03
     &BFGS
     &END BFGS
   &END GEO_OPT
   &MD
     ENSEMBLE  NVT
     STEPS  2000
     TIMESTEP     4.9999999999999994E-01
     STEP_START_VAL  7
     TIME_START_VAL     3.4999999999999991E+00
     ECONS_START_VAL    -1.1026470025575584E+03
     TEMPERATURE     3.0000000000000000E+02
     &THERMOSTAT
       TYPE  GLE
       REGION  MASSIVE
       &GLE
         NDIM  5
         A_SCALE     1.0000000000000000E+00
         A_LIST     1.8595758612559999E+02    2.7263853498399998E-01    1.1526100454610001E+01   -3.6414578262600003E+01 \
             2.3173375816020001E+02
         A_LIST    -2.7809524712060002E-01    8.5951591808710006E-05    7.2189048017650004E-01   -1.9844539343859999E-01 \
             4.2409257583420001E-01
         A_LIST    -1.4825808131210000E+01   -7.2189048017650004E-01    1.3590902121280000E+00    5.1498896280349999E+00 \
            -9.9949268450990001E+00
         A_LIST    -1.0372189126880000E+01    1.9844539343859999E-01   -5.1498896280349999E+00    2.6661910891169999E+01 \
             1.1507715495310000E+01
         A_LIST     2.1801346360420001E+02   -4.2409257583420001E-01    9.9949268450990001E+00   -1.1507715495310000E+01 \
             3.0958394565589998E+02
         &THERMOSTAT_ENERGY
              -6.4972466687106007E-04
               1.4499180575155776E-04
              -3.9975688222913374E-04
              -1.3387351264623377E-03
               7.8923933523845414E-05
              -2.5185792705522113E-04
              -5.1251565287662153E-04
              -4.4987897933601958E-04
              -4.1861038715209091E-04
               4.8911683970385338E-04
              -8.6373094580397924E-04
              -8.8400092903198916E-04
               9.1432818332802741E-04
              -3.7099925025950952E-04
               3.8113026266247850E-05
              -1.4356753428464676E-04
              -3.1479661155170912E-04
               3.3202347814981578E-04
              -1.1451522572972197E-04
               8.6122371013250287E-06
               2.1426920776958041E-04
               1.3720825502303829E-03
               5.3038155079511711E-04
              -4.9063119368212046E-05
               1.1018370228460639E-04
              -2.3837980614682510E-03
               4.8393164564615530E-04
              -4.0221948178239584E-06
              -4.5010888356687283E-04
              -1.5437141718778599E-04
              -3.7737175430106523E-04
               6.3994551892599598E-04
              -2.4017666583473186E-03
              -1.6251076240886796E-04
              -1.9854452651915633E-04
              -9.4798988735455062E-04
              -1.2845653595893483E-04
               1.1038750594581706E-04
               6.1185410928713772E-04
              -3.8286824875625102E-04
               1.3394471128036468E-04
               9.1768886231546705E-05
              -1.5775169117848526E-03
               9.6755231254397832E-04
              -7.3374911191125599E-04
               1.8148444939837594E-03
               7.7412836607810843E-05
              -8.4072301846635500E-05
              -9.5776054867645539E-04
              -4.1605172885953259E-04
              -9.3757847185129144E-04
              -1.2077358486019972E-03
              -4.1855349009002271E-04
               9.9655038373952393E-05
              -3.0234851348006058E-04
              -6.0313429359363591E-05
              -2.9467863170035846E-04
              -2.9872507744428098E-04
               2.0804185101476076E-04
              -2.2511897097581080E-03
              -8.0670332335509040E-04
               4.4699897589656223E-04
               7.5254519224807626E-04
               7.5332932272526693E-04
              -7.6036683018420334E-04
               4.5886256138975178E-04
               7.3976971134403363E-04
               1.3908049678610325E-04
              -2.1867849582945918E-04
               8.7133579714039893E-04
              -6.6975719678796460E-04
               1.2051266119179572E-03
              -6.0352287619154597E-04
               2.7837632892687699E-04
              -4.5759997710414358E-04
               1.2688616009181783E-04
               4.0236574609918381E-04
               9.8549869748303836E-04
              -9.7985668808080835E-04
              -6.2730382550919860E-04
               1.5875499968655491E-04
              -1.5687460315558165E-04
               1.3170708416647075E-05
              -4.1110118044079195E-04
               1.2780500369827181E-03
              -5.8372922845469960E-05
               2.8771876986936429E-04
               7.0271231792603747E-04
              -1.0678074153096202E-05
              -8.9828808525773413E-05
               1.0745354030822498E-04
               2.5613594192401817E-04
               3.0302447429319005E-04
              -1.6530323156017041E-03
               9.2056332401254512E-05
              -1.0939904708603748E-03
              -1.0412610311658801E-03
               4.1883812687353321E-04
              -5.0844873730716595E-04
               2.8507255402801740E-04
              -9.6106542266678188E-04
               6.5294337245476366E-04
              -6.6642795021106980E-04
               4.0209459044336453E-04
              -4.4213158935439332E-04
               9.9645773936662290E-04
               1.9744819758757133E-04
              -2.8190198790100686E-05
               1.2082241905433842E-03
               2.2254283774700675E-04
               1.3231105383743397E-04
               3.5280184716255015E-04
               1.0951114611888121E-03
              -5.9920091130176109E-04
              -5.3506828210335856E-05
               5.2998554238618139E-04
              -4.7973468752117226E-04
               9.1786008748040253E-04
              -2.5043591121770900E-06
              -3.2206125531955451E-04
               2.0548426921637819E-05
              -1.3360361152759672E-04
               1.8445967062160214E-03
              -4.1155779841523280E-04
               1.1573294478073698E-04
              -3.2187040877757492E-04
              -8.9842073503731425E-04
              -1.3211999031994387E-04
               1.3527211262841627E-05
              -4.9856880494860074E-04
              -7.4960961161018680E-04
              -2.3403508953117379E-04
               1.6435629463731620E-03
              -2.7364100853709272E-05
              -4.3482724274656790E-04
              -5.0966299534473640E-05
               1.8621606729774445E-04
               3.8589979824718234E-05
               5.8038387765236123E-04
               1.1550575807408308E-03
               3.3416659850765793E-04
               2.5403724245828883E-04
              -2.9483823680736090E-04
               1.3561373323381018E-04
              -3.5997312374395928E-04
               3.4163952502320457E-04
              -1.1420529512711747E-04
              -6.1719811483794407E-04
               4.0105622096109201E-05
               1.7660102007994929E-04
               1.5697162732934383E-05
              -4.9371564889909303E-04
               1.3065348568394635E-04
               3.4076495261029432E-04
               3.2120586990620688E-04
              -7.4899678357977337E-04
               3.1159929521492463E-04
              -5.3245052093119408E-04
              -2.6141089511793258E-03
              -8.9902989339681646E-04
              -1.8855490827415176E-04
               9.2818127359630564E-05
              -8.7608512136096877E-04
              -9.6552134009672845E-05
               1.3598286637154296E-03
               2.9273008467231473E-04
               9.2708953421372781E-04
               6.8247717456113846E-04
              -1.1552279054339257E-03
               2.8085132807077225E-04
               3.1730659926014861E-04
               7.7139249783886614E-04
              -1.5840177621171647E-04
              -1.1702534387829843E-04
              -1.1236373568719723E-04
               1.7902904453374606E-04
              -9.3461063810711077E-04
              -7.4723039042207953E-04
              -2.9220586176504623E-04
               2.5894529572934570E-04
              -1.2314423543610990E-04
               3.1674154518652288E-04
               8.8295667520947054E-05
              -5.8390784578459464E-04
               8.6551606565929439E-04
              -4.6304662053317275E-05
              -3.2536940185031783E-04
              -4.7241967296214561E-04
               1.4225699101328782E-05
               3.4576827416901419E-04
              -1.8282011406190558E-04
              -1.8677836155538030E-04
               3.5539984054485209E-04
              -1.6293742127800671E-03
              -2.5478499077533827E-04
              -1.7125196500350341E-03
              -9.8282532506253776E-04
               5.2886462354309908E-04
              -1.6814105941781205E-04
              -2.4508917491283322E-05
               7.6569779916072151E-04
               8.9301799984017481E-04
               3.0753165208735985E-04
              -1.7013480983188971E-04
              -4.1204787694422939E-04
              -4.0471114038873247E-04
               1.0467113252801772E-03
               5.6148233482918595E-04
               1.8297226607858641E-04
               2.2873202037305309E-03
              -2.2043492056818026E-04
               1.1299353900061466E-03
               1.2270325809843900E-03
              -1.6668789305656143E-03
              -3.3809592214591037E-04
               2.7448401155372198E-05
              -1.3736884289776595E-03
               6.8112011241527231E-04
               4.4882906393676743E-05
               6.5757038663713033E-05
               1.4080651284548574E-03
               1.4391098516527119E-04
               1.8942820381307067E-04
               6.6398143492165849E-04
               9.8575885721111876E-05
               8.1047527319972462E-04
               1.6645271657340036E-03
              -1.7102165947964214E-03
              -1.2267230200417915E-03
               5.9584525196499478E-04
              -5.3145958723161194E-04
               7.7665873354585682E-04
               4.4311432826263527E-04
               3.2655371033405957E-04
               5.5740168982823148E-05
              -6.7900886724818081E-05
              -5.8072174092875528E-04
              -3.0166499062332761E-04
               2.9989430783600201E-04
               1.1613865653698118E-04
              -2.4685464384506962E-05
               2.4524928327807755E-04
               1.4556719083004411E-03
               1.9622673575705857E-03
              -4.0929125357487453E-04
               3.3664108447275653E-04
               1.2658966158138102E-04
              -1.6111810284647203E-04
               1.0934071252113786E-04
               4.8488864265085272E-04
               2.8383667146458438E-04
               2.1443464689215752E-04
              -4.3409135524115567E-04
              -3.5466429024949456E-04
              -4.4995307339098004E-04
              -5.4583681796359945E-05
               2.9219637417130060E-04
              -3.7902352432555436E-04
               1.3296698222314898E-03
               4.2580236433640488E-04
              -4.9302099036195026E-04
               1.4911984762111421E-04
              -1.0719936275241256E-04
              -3.1774926114518825E-05
              -5.5031717042985473E-04
               3.5816661885459971E-05
               4.7374450789543801E-04
               6.0108257831075764E-04
               3.3894070652595843E-04
              -6.4994632887215346E-04
               2.8037881426768775E-04
               1.3284291506313463E-04
               5.1908899574642879E-04
               1.0308785684367836E-04
              -1.0417018302089130E-03
               3.6016243463863458E-05
               6.5427891397692878E-05
              -4.8383640941978981E-04
               6.7905603984152866E-04
              -4.1459371401837504E-05
              -2.3669851758517706E-04
              -7.1565056148303462E-04
               5.0530104756007566E-04
               6.7550275201871794E-04
              -3.1363125095348074E-04
               1.8027175012628584E-05
              -5.9276806201626195E-04
              -7.3193667828319695E-04
               9.6635059100088131E-05
               7.4879180294362907E-05
               2.9247958905107365E-04
               5.7611548250850720E-04
              -1.9225506367910776E-04
              -1.9384159787924377E-04
               8.9421298086403607E-05
               2.5889198072774589E-04
              -2.6495913206790787E-04
               6.5985238012422718E-05
              -9.6802089796130708E-04
              -1.4191932173323232E-03
               9.6512351781557657E-04
               4.4526201315306710E-04
              -8.7422655738010797E-04
               3.7164008181577552E-04
               7.8650888000236395E-04
               2.4867297178875539E-04
               2.6897438526502251E-05
              -7.9141865927056534E-05
              -6.4466828319483947E-04
               1.8069655316307290E-04
               6.3535121848819724E-05
              -2.3573865323397595E-05
               2.7690048326211381E-03
              -6.4057013326467764E-05
              -1.9172854233917406E-04
               1.1491786943838046E-03
              -1.2449035757922464E-04
               1.1196593503267015E-03
               9.9383427769364290E-04
               1.3006693882605892E-03
               6.6385951652175900E-04
               5.1420767230433431E-04
               5.2769604851317083E-04
              -3.1139629342010567E-05
              -9.6930483692984231E-04
               3.9776602449170220E-04
              -5.5515844452780989E-04
              -7.1647232457880145E-04
               1.4395693599390116E-04
               5.1030570261055455E-04
              -1.0364603209275561E-03
               5.5478226184512542E-04
              -1.2851162178451316E-04
               6.3005837227066218E-04
              -1.3844413320646077E-04
               2.2459197983363280E-04
               1.6302215935036334E-03
               2.1550607915428604E-05
              -6.8751832025868104E-05
              -2.8617574845615405E-04
               2.7073406988718768E-05
               7.2141074234103263E-04
               2.0025148044492693E-03
               4.0925153626605111E-04
              -9.4475538519067388E-04
               5.8305494184401915E-05
              -3.6766952956237886E-04
               3.5983831491779694E-04
              -9.4401192081602271E-05
              -3.6773319341770966E-04
              -2.7859875346888713E-04
               2.4483739171456061E-05
              -4.5979258536628115E-04
              -1.9401674179767811E-05
              -2.0023759972938372E-04
               2.2036301111289810E-04
               6.3192000766848781E-04
               1.1630054832223779E-03
               8.2815547541332244E-04
              -1.8990639589928152E-05
              -3.5340238044067728E-03
               1.8265691682619657E-06
              -4.6722953216271780E-04
              -1.9735384444572151E-04
               2.0621274656929206E-04
               4.0621277135819919E-04
              -8.1628885919087717E-04
              -1.1609781889296476E-04
              -2.3439284696623002E-04
              -1.0230776341924443E-03
               9.2263190796505637E-05
               2.4480494781480973E-05
              -1.1969173115103664E-04
              -6.0328030314645963E-04
              -2.0089155976580350E-04
              -2.1749938812587843E-03
              -4.5234278746512544E-04
               5.5590788521838895E-04
               2.6853833467808410E-04
               6.4314749436607374E-04
               2.3564410221528221E-04
               7.0772650256102339E-04
              -8.0493226272507115E-04
               1.1169218985918081E-04
               2.6515377246472431E-04
               1.5403804932519725E-03
               1.3257831421137079E-04
               6.1181099175801275E-05
               6.3645044765405921E-04
               2.4330685042369258E-04
               5.4680201589156225E-04
               7.0930925451415019E-04
               9.8840804522848429E-05
              -9.0948566831302864E-04
               3.2648192551938661E-06
              -8.8585184791713662E-05
               5.4800433686376404E-04
               1.3338321659338965E-04
               1.3842859824383057E-04
              -1.3923436504727279E-03
              -1.9626926804994383E-03
               6.1177417626117941E-04
              -2.0275626781234105E-04
              -2.4401567515654188E-04
              -2.5698863072689024E-04
               2.9194906009018837E-04
              -6.6188009937329209E-05
               9.0391898674114938E-04
              -2.8843726311291823E-04
               3.9275513596377692E-04
               4.0022930286554714E-04
               4.5059196663282134E-04
               2.2891449350994901E-04
               1.0136699341035519E-03
               5.9371880058330163E-06
              -3.2674390001952863E-04
              -1.7730363182389222E-04
              -3.3449522852857603E-04
               3.5917538299442924E-04
              -1.4607302044249728E-03
               2.9712857068637063E-04
               1.1077946595901464E-04
              -9.0824628793217857E-04
              -9.6187610476867785E-04
               5.4319346667155641E-05
               3.5473711354313923E-03
               1.0153498116884092E-03
               4.4216154633532360E-04
              -1.4733113120667003E-03
               4.8933064477286597E-03
              -5.1180688879508415E-04
               4.0766287253144080E-04
               2.8407666557679796E-04
               1.2620041080651969E-04
               4.5088400530453104E-04
              -1.3409950216919017E-05
              -1.6576981470738285E-04
              -9.3463119309041578E-05
              -1.9909966455662896E-04
              -1.6128287709355578E-04
               3.5343030013950117E-05
              -8.7337019193912317E-04
              -1.9110359312832849E-05
              -9.2985582181745810E-05
              -1.8984846401680979E-04
               1.9918902813150669E-05
               3.8137985107123974E-04
              -3.2077867495054996E-04
               3.3358052878506596E-04
               1.3734683193812860E-04
               1.6579260343327590E-04
              -6.8762187135995123E-04
               2.4722131641162306E-03
               9.9243530806389043E-04
              -2.0813259446823970E-04
              -5.0250545572418434E-05
               6.9275231278499570E-05
              -5.3218180315019051E-04
              -1.9233832884939543E-04
              -3.4671311847806205E-03
              -7.5983095666836114E-04
              -1.4562635233537210E-03
              -3.0617059970809658E-04
              -8.1052781334391231E-04
               1.0212354706901779E-03
              -1.4494564059482583E-04
               1.0351521587380797E-03
              -1.5758855331191365E-03
               3.2835354908347224E-05
              -1.0078829394040978E-03
               3.3166544053728333E-04
               2.5295506312913269E-04
               9.8620417000154200E-04
              -9.6257945079845106E-04
               5.0272327143396705E-05
               9.0812394509809955E-04
               1.4100634380822383E-05
              -1.4597173899446296E-04
               8.3305191312869355E-04
              -7.5328361787591796E-05
               1.8831734498900368E-03
               2.5070566030032862E-04
               1.4627770450857070E-03
               1.0742458249915873E-03
              -1.5709898678797013E-03
               1.3132483577254469E-03
              -5.3344599782769819E-04
              -1.0736797121321038E-03
               4.2274214823346043E-04
               3.8795687114360957E-05
               2.1233306543871661E-04
              -1.5859288301160659E-04
               4.0567665918932118E-04
               1.8929809056399588E-04
               6.1972616792835560E-04
               1.3363843381120480E-03
              -1.2692084157011339E-04
              -4.2410011184126667E-04
               2.8012884062883226E-04
              -3.8434681746265793E-04
              -1.7363395751075848E-05
               5.5686504013254955E-05
              -1.3027889102664862E-04
              -7.7345744278314394E-05
              -2.0650411477410169E-04
               2.1896671209857549E-04
              -1.6687946360118642E-04
               2.1000136523842346E-04
               5.8766225487173583E-05
               1.2926065700382346E-04
              -3.9643001157807750E-05
              -1.1657241400490530E-03
              -3.1179370282932478E-04
               5.4956546240911047E-04
              -2.3451620829111929E-04
              -1.1258064002472538E-03
               1.8478542895924101E-04
               1.6758827152264788E-03
               4.5193419732715172E-04
               2.5364301487090638E-04
               3.5044937854827902E-05
               1.8872553143785690E-04
               4.0356520679820306E-04
              -7.6129188242454585E-04
              -1.9763059087231203E-04
               2.9223901520009316E-04
               8.8678858053368580E-04
               1.1598276287888681E-04
               1.7948509563098791E-03
              -6.9220257331888070E-04
               4.1873998268565974E-04
               4.3591439702252101E-04
               9.8356940151411807E-04
               3.4628325745449841E-05
               2.4602219051332217E-04
              -9.4068735410227588E-04
              -4.7775120019425278E-04
               1.9109830359125411E-04
               4.8427957734592584E-04
              -2.0816770997979602E-04
               2.7038857861902123E-04
              -5.3149322785563070E-04
               1.3978170543693609E-04
               9.8204141875706289E-05
              -2.0896379992856279E-04
               6.4367101745171277E-05
              -3.3899983838733166E-04
              -2.1711940453155844E-04
              -8.9076088577443176E-04
               1.2231677767903903E-04
              -8.1911992409143249E-04
              -2.6220183336752342E-04
              -5.3647573490027184E-04
              -9.1086332323583598E-05
               1.7634433487689247E-06
              -7.4051819864716460E-04
              -4.1635763930258777E-04
              -1.8927472872728459E-05
               6.4146858574609051E-03
              -7.0275782386959433E-04
               3.6555371632900383E-04
              -1.6553994791347537E-03
               1.7358833411582896E-04
               7.7192743697918878E-04
               7.3445734029336531E-04
              -3.1658230277290715E-04
              -1.1298360635443420E-03
               2.5273049044478618E-04
              -5.2642440954541543E-04
               4.9672779941195187E-04
               6.9391802265551350E-04
               1.0345607787993890E-03
               4.2417839672059170E-04
              -2.0607249037624185E-04
              -2.7816258089548957E-04
              -5.0937112811615397E-04
               9.0958801324399381E-04
              -2.2301412367891141E-04
               2.7796838447561792E-04
         &END THERMOSTAT_ENERGY
         &RNG_INIT
Wiener process for Thermostat # 1        1 F T T   3.3838790538893604E-01        1472525927.0        2089045487.0        2546446970.0        3211629158.0        2940479417.0        3114690126.0             12345.0             12345.0             12345.0             12345.0             12345.0             12345.0             12345.0             12345.0             12345.0             12345.0             12345.0             12345.0
Wiener process for Thermostat # 2        1 F T T   1.5584450880797294E+00        3846352038.0        1636860609.0        3031361799.0        2908251267.0        2685303738.0        4140316942.0        3692455944.0        1366884236.0        2968912127.0         335948734.0        4161675175.0         475798818.0        3692455944.0        1366884236.0        2968912127.0         335948734.0        4161675175.0         475798818.0
Wiener process for Thermostat # 3        1 F T T   2.6343140846398603E+00        1561913418.0        2550240222.0        3994522414.0        3098561765.0          26665538.0        2480975672.0        1015873554.0        1310354410.0        2249465273.0         994084013.0        2912484720.0        3876682925.0        1015873554.0        1310354410.0        2249465273.0         994084013.0        2912484720.0        3876682925.0
Wiener process for Thermostat # 4        1 F T T   1.5191921339696242E+00        4267323253.0        1145748452.0        4193473330.0        3719068466.0        2140211263.0        3137880729.0        2338701263.0        1119171942.0        2570676563.0         317077452.0        3194180850.0         618832124.0        2338701263.0        1119171942.0        2570676563.0         317077452.0        3194180850.0         618832124.0
Wiener process for Thermostat # 5        1 F T T  -2.6944902551577954E+00        2811791493.0         741038648.0        3035779440.0         660091437.0        3196805871.0        1588300937.0        1597262096.0        3906379055.0        3312112953.0        1016013135.0        4099474108.0         275305423.0        1597262096.0        3906379055.0        3312112953.0        1016013135.0        4099474108.0         275305423.0
Wiener process for Thermostat # 6        1 F T T  -2.6736908306977358E-01        3273760382.0         582933027.0        1954940946.0        3649910353.0        3552439608.0        2215477579.0          97147054.0        3131372450.0         829345164.0        3691032523.0        3006063034.0        4259826321.0          97147054.0        3131372450.0         829345164.0        3691032523.0        3006063034.0        4259826321.0
Wiener process for Thermostat # 7        1 F T T  -1.3774989340515087E-01        1787404546.0        3700552354.0        3616720305.0         711152764.0        1678531568.0        2614272384.0         796079799.0        2105258207.0         955365076.0        2923159030.0        4116632677.0        3067683584.0         796079799.0        2105258207.0         955365076.0        2923159030.0        4116632677.0        3067683584.0
Wiener process for Thermostat # 8        1 F T T   4.9649999631287406E-01          15897067.0         224698208.0         904788437.0        4149124631.0         900205358.0        2980734625.0        3281794178.0        2616230133.0        1457051261.0        2762791137.0        2480527362.0        2282316169.0        3281794178.0        2616230133.0        1457051261.0        2762791137.0        2480527362.0        2282316169.0
Wiener process for Thermostat # 9        1 F T T   5.3497322943212178E-01        3502974239.0        1183670227.0        1165886280.0        2109913222.0        2901000386.0        3072909853.0        3777646647.0        1837464056.0        4204654757.0         664239048.0        4190510072.0        2959195122.0        3777646647.0        1837464056.0        4204654757.0         664239048.0        4190510072.0        2959195122.0
Wiener process for Thermostat # 10       1 F T T  -6.8815971659071851E-01        4121737411.0        3050221543.0        1883113161.0         502921181.0        2614664957.0        2069984250.0        4215590817.0        3862461878.0        1087200967.0        1544910132.0         936383720.0        1611370123.0        4215590817.0        3862461878.0        1087200967.0        1544910132.0         936383720.0        1611370123.0
Wiener process for Thermostat # 11       1 F T T  -9.9066543560250242E-01         908441394.0         846057261.0        3238920410.0         361955422.0          40453189.0        2281070672.0        1683636369.0         362165168.0         814316280.0         869382050.0         980203903.0        2062101717.0        1683636369.0         362165168.0         814316280.0         869382050.0         980203903.0        2062101717.0
Wiener process for Thermostat # 12       1 F T T  -4.7994649622269958E-01        2583841546.0        4121050805.0        4282543066.0        2718838073.0        2609417619.0         610495051.0         272317999.0         166758548.0         310112982.0         201045826.0        1680231254.0         118290799.0         272317999.0         166758548.0         310112982.0         201045826.0        1680231254.0         118290799.0
Wiener process for Thermostat # 13       1 F T T  -5.5690276299729646E-01         570415236.0        1852063599.0        3951317983.0        3577514217.0         779917974.0         530425496.0        2245755202.0        1652682525.0        2865544364.0         721509566.0         209733568.0         592362218.0        2245755202.0        1652682525.0        2865544364.0         721509566.0         209733568.0         592362218.0