 # Version information for this restart file 
 # current date 2024-12-02 00:29:37.502
 # current working dir /scratch/work/courses/CHEM-GA-2671-2024fa/students/mr6966/comp-lab-class-2024-MR/Week12-IntroAIMD/Runs/Protons
 # Program compiled at                              Sat Dec 12 18:27:15 EST 2020
 # Program compiled on                                         cs001.nyu.cluster
 # Program compiled for                                                nyu-intel
 # Source code revision number                                       git:8c64c6e
 &GLOBAL
   PRINT_LEVEL  LOW
   PROJECT_NAME water_aimd_1ns_every0.5fs
   RUN_TYPE  MD
   WALLTIME 21600
 &END GLOBAL
 &MOTION
   &GEO_OPT
     OPTIMIZER  BFGS
     MAX_ITER  100
     MAX_DR     3.0000000000000001E-03
     &BFGS
     &END BFGS
   &END GEO_OPT
   &MD
     ENSEMBLE  NVT
     STEPS  2000
     TIMESTEP     4.9999999999999994E-01
     STEP_START_VAL  1500
     TIME_START_VAL     7.5000000000000762E+02
     ECONS_START_VAL    -1.1026470025575584E+03
     TEMPERATURE     3.0000000000000000E+02
     &THERMOSTAT
       TYPE  GLE
       REGION  MASSIVE
       &GLE
         NDIM  5
         A_SCALE     1.0000000000000000E+00
         A_LIST     1.8595758612559999E+02    2.7263853498399998E-01    1.1526100454610001E+01   -3.6414578262600003E+01 \
             2.3173375816020001E+02
         A_LIST    -2.7809524712060002E-01    8.5951591808710006E-05    7.2189048017650004E-01   -1.9844539343859999E-01 \
             4.2409257583420001E-01
         A_LIST    -1.4825808131210000E+01   -7.2189048017650004E-01    1.3590902121280000E+00    5.1498896280349999E+00 \
            -9.9949268450990001E+00
         A_LIST    -1.0372189126880000E+01    1.9844539343859999E-01   -5.1498896280349999E+00    2.6661910891169999E+01 \
             1.1507715495310000E+01
         A_LIST     2.1801346360420001E+02   -4.2409257583420001E-01    9.9949268450990001E+00   -1.1507715495310000E+01 \
             3.0958394565589998E+02
         &THERMOSTAT_ENERGY
               3.0945401805688791E-03
              -4.4737592814302384E-03
              -4.6462094601883398E-03
               2.9655610024946514E-03
              -1.7656482272551979E-02
               8.9458815373804502E-03
               5.8207853301910804E-03
              -1.7040456083033469E-03
               3.4841139916619540E-03
               3.8810613710763865E-03
               5.8392914992849180E-03
              -2.1096011609930600E-03
              -1.6920071936647675E-04
              -6.2024182057788101E-03
               5.9008677751075335E-03
              -4.3111910248803112E-03
               5.1818099873896248E-03
              -7.3091045925756208E-03
               1.2113662249920148E-03
              -2.0239374629637081E-03
               1.3804118278780803E-03
               5.4698714688695832E-03
              -5.9394033718513225E-03
              -2.5590305554811957E-03
              -8.2290524816794482E-04
              -9.2115744263421041E-03
               5.1790577232121021E-03
              -6.6346102738010465E-04
               6.3398753052966309E-03
              -3.1116247938304913E-03
              -1.7597461218214615E-03
              -3.6242847627977596E-04
              -4.5433231675792989E-04
               1.6249875725861957E-03
              -1.8470855440591766E-02
               1.8340758823951010E-02
               8.3189609038636239E-04
              -2.9958752198976373E-03
              -4.7891845003059912E-03
               3.2454027182965512E-03
               6.7763749131838956E-03
              -2.6772849684334075E-03
               2.4118135605203711E-03
              -2.2719498110305692E-03
               2.6374317169414428E-03
               4.4460037528334653E-03
              -6.5417337463128614E-03
               1.4024985632174415E-02
               2.8529013418062609E-03
               5.4774563014900867E-03
               2.2207550030153272E-03
              -6.0317610109741626E-03
              -1.1374967203499823E-03
               1.0643861222822374E-02
              -6.0644509934022969E-03
              -5.6710097477110689E-04
               2.7277806785402036E-03
               9.5047600641377068E-04
               3.6589066173657219E-03
               3.9011782173374232E-03
              -5.5336904433265282E-03
              -4.4533543670582602E-03
               1.2417157710373298E-02
               2.5257410969423662E-03
              -3.2636184074694556E-03
               3.4684053533953698E-04
              -4.9120282027162593E-03
               1.4186390832724523E-03
               1.5184309464519792E-02
               6.8261975090761675E-03
              -4.2208232574906801E-03
              -1.2376821399403807E-02
              -5.0590058985132249E-03
               1.3449842879551307E-03
               1.6703252060412557E-03
              -1.1191377232355868E-02
               1.5349798818720454E-02
               1.2904680053656439E-02
               4.8115171334619867E-03
              -1.6303761324223997E-03
              -1.0913925375996740E-02
              -4.9558409968265566E-03
               4.7088286167635083E-03
               7.2978611254002782E-05
               1.9372552175524653E-03
               1.2268020936915863E-03
              -1.2277449147085912E-03
               4.6063414598417150E-03
              -1.9844772259415786E-04
              -1.5098478890937510E-03
               2.2282768264642880E-03
              -2.7060454402000442E-03
               5.5558434696065823E-03
              -6.7939618995475478E-03
              -1.5540241153739150E-02
               8.2405878255677745E-03
               2.0731073046584771E-03
               1.4395554886577856E-03
               5.3535424884537837E-03
               1.2384035506448471E-03
              -3.5314710974645152E-03
              -6.1206983940747051E-03
              -1.0203590788478839E-03
              -1.5004852560159604E-03
              -1.4675702969575066E-03
               4.8573105526871583E-03
               1.7066779187916957E-03
              -2.4690388501084739E-03
               6.2468407897087654E-03
              -2.9906828603965207E-03
               2.0949262831491922E-04
              -2.9778123582560358E-03
               6.6379986297037293E-03
               9.2487151768730555E-03
               9.9176759367002251E-03
              -4.6514972942795522E-03
              -9.2515826662694593E-03
               1.0274139662388716E-04
               6.9152311612912382E-03
              -2.6378069197153767E-03
               2.8515365058746278E-03
               1.9093771353083447E-03
               3.1454945062735430E-03
              -1.2412640470673957E-03
              -6.7820200024180134E-03
              -1.2125873727017986E-02
               8.5092765987410494E-03
               3.2989027786358158E-03
               3.1587036118093373E-03
              -5.2931126408624421E-03
              -4.2744313531301670E-03
               1.6298508033969260E-03
               4.1293846239818027E-03
               2.0931770847633143E-03
              -2.8846948703151192E-03
               1.4676984259597646E-03
              -5.6733405369894692E-03
              -8.0288327946831124E-03
               1.4893737528985491E-03
              -1.9195299520307480E-03
               6.8051461131862822E-03
               1.1575087405455478E-02
               1.0026109262814820E-02
              -7.0255601769745376E-03
              -6.5670190675589145E-03
              -2.6351710025786759E-03
               4.5166689732290361E-03
              -4.1111107079981422E-03
              -8.5852117531622432E-03
              -2.2184909204525870E-03
              -9.5004400216518372E-03
               5.6434633442555109E-03
               3.4520489281091339E-03
              -5.1675317084563252E-03
               2.8540550837208743E-03
              -1.0073315160219673E-03
               7.7808932755443544E-03
              -2.0412478516605975E-03
              -7.5747560779774285E-03
               3.6149108373049049E-03
              -1.3036260291320347E-03
               1.4710421555864227E-03
              -8.1781892778629310E-04
               3.1515391027760633E-03
               1.2287631572190202E-02
               1.7804349339254788E-02
              -1.6321286238636472E-03
              -1.1296861733341018E-02
              -6.6912548083204000E-03
               1.8522806169849494E-05
              -6.6493997856244323E-04
               5.2910027966844217E-04
              -4.0657653404359683E-03
              -2.9006813662835569E-03
              -5.2507461156654743E-03
               1.1649547814409440E-04
               6.8515502554588143E-03
              -8.6318011162178198E-03
               1.0389914757367022E-02
               5.8648808511792732E-03
              -5.0954099189427890E-04
               1.3549130244469541E-03
               1.0203494106656569E-03
              -1.7143547578316921E-02
               1.3975339727035484E-02
              -1.1958810577930136E-03
              -2.7919159666518222E-03
               1.7497213084791963E-03
              -7.4073053886641125E-03
               2.8471119130287817E-03
              -4.8496869100458804E-03
              -1.5540553834259283E-03
              -6.7685940774859874E-03
               7.9583869076154095E-03
               6.9692159467382615E-03
              -7.3253655135878263E-03
              -2.9262305588259813E-03
              -7.9189388493287015E-04
               1.1238220927403697E-03
               3.3261476303811655E-03
              -2.8609947236914427E-03
              -3.3197354259438959E-03
              -6.5241444006549458E-03
               1.1180988042025037E-03
               5.6511034640445009E-03
               1.9723123740616934E-04
               2.8077565982143082E-03
               2.8428872541594440E-03
               2.0872236294494626E-03
               2.5259533401202055E-03
               4.6149429862196835E-03
              -6.7508825836706072E-03
               7.3063761233820605E-03
              -3.0054920303626137E-03
               4.2622668553336053E-04
               7.5251152346030303E-03
              -4.4479376794958102E-03
              -4.8851601090760619E-03
              -1.3848841452710049E-03
              -1.3207158295590485E-03
               2.5425294287509739E-03
              -1.1096184613414221E-02
               9.4082229655815413E-04
               4.1183859380684406E-04
               1.3489573921189521E-03
              -1.4710773829582758E-04
              -2.2038186087351987E-03
               2.4415158845972414E-03
              -8.3470434457121653E-03
               7.2643380579476228E-03
              -7.3422871474150345E-03
               4.8622439650950798E-03
               5.5885050540366906E-03
              -2.3840757500267159E-03
               1.1428688525776227E-03
              -4.6145744804427149E-03
              -3.0439429544328617E-03
               2.4889624483092972E-03
               9.2780952859977314E-04
               6.4071232326356978E-03
               4.4898504567016991E-03
              -4.1501101772442569E-03
              -3.9428686885084228E-04
              -3.4650341633180666E-03
              -1.8213963577902990E-03
               1.1071893284499692E-03
               3.7999507868491720E-03
              -3.5192161802938410E-03
              -5.7872661806651470E-03
              -1.6035378740235009E-03
              -1.7226250409064861E-03
               2.7321741348342726E-03
              -4.5474968935732430E-03
              -7.8604646621250242E-03
               5.2722742103572711E-03
               1.4908958719502402E-03
               1.6393674159855435E-02
              -8.9657416094739897E-03
               5.6562160832303674E-03
              -1.4502571145417024E-02
               1.7577406507563821E-02
               1.0232220053774011E-03
               8.8082777847270574E-03
               1.1781867072242942E-02
               7.0332099168306499E-03
              -1.3115192493558202E-02
               2.1583260673886532E-03
              -8.4423636147546027E-03
              -2.8591543495558101E-03
               1.2391623866176654E-02
              -1.3828306142786172E-03
              -1.0508817597234564E-02
               5.3614011374458368E-03
               1.1618761182474674E-02
              -1.5879578732345011E-03
              -1.0180212545702664E-03
              -1.7727977781262928E-02
               1.5138067948427378E-02
              -5.3376050402070326E-03
               4.6259010387351262E-03
              -5.8965381739012898E-03
               7.5194092901966127E-03
              -4.1523088048063414E-04
              -6.0783191823927047E-03
               5.7552569719796550E-03
              -7.8561812442513399E-03
               5.0805441897507466E-03
              -4.4763296401031209E-03
              -3.5173287582440480E-03
               2.2879406663725240E-03
              -8.4756447254597835E-04
              -3.7238832133840941E-04
              -5.1737486385498950E-03
               7.1697744651937263E-04
              -5.4208841748606120E-03
               1.4173338757838632E-03
              -8.5945828337137351E-03
              -3.9398579511251541E-03
              -4.2396039686230609E-03
              -8.8784493015332394E-03
               1.5551671919990379E-03
               1.0190412634350398E-02
               9.5630292685147597E-03
              -2.4677525857098349E-03
               1.3071586826497495E-02
              -1.1602526195960193E-02
              -3.9483066806492622E-03
              -1.8092409496494287E-03
               5.5027455968858106E-03
               1.2318489139966251E-02
              -3.3206858426974893E-03
              -1.8678019622872438E-02
               1.2861701739570576E-03
               7.2033662496408255E-03
              -4.8766060985314386E-03
               6.8173496483973067E-03
               3.1799712287386979E-03
               2.4429730259245361E-03
              -8.9856856053697285E-03
              -3.1857373116741380E-03
               1.5735766719923286E-02
              -4.4718401488610150E-03
              -5.6489642477818890E-03
               7.8936191017427576E-03
              -3.0764096570554085E-04
               8.4344736397779924E-03
               6.5263615227197363E-04
              -1.0938043051071615E-04
              -3.8351018021235399E-03
              -9.9127847267334729E-03
               3.2026353156430819E-04
              -1.3564085841087531E-02
               1.0061496359180983E-02
              -2.6445341291137531E-03
               2.5814290026474574E-03
              -1.1500445430575874E-03
               8.6556559862670801E-03
               2.6742176746085999E-03
              -7.6464948096210657E-03
               6.4350519504986822E-03
              -1.5546965954149764E-03
               2.9708572860775084E-04
               3.5449492213372158E-03
              -1.4252952530237849E-03
              -1.9412335214769847E-03
              -7.7735742849438152E-03
               6.2815052341719619E-03
              -1.6057422575322352E-03
              -6.0841999811072469E-03
              -3.1295460513037815E-04
               7.2647608445647275E-03
               1.0711201959925752E-02
              -9.1633238533689564E-03
              -3.7879861228351528E-03
              -2.7812558134338900E-03
               9.6474632026890064E-03
              -5.4752555585161631E-03
              -8.2735748093166854E-03
              -1.3589922042841157E-03
               4.9331998330241784E-03
              -2.7883366917130577E-03
              -1.8670695419105076E-03
              -9.3958099103897807E-03
              -6.4277114255861011E-03
              -3.7596258252815228E-03
               1.7929324540065378E-02
               2.0475050759469286E-04
              -1.6769440808776927E-03
              -5.2130955826250594E-03
              -6.6730446113554016E-03
               4.7745914609449358E-03
               6.2752866473017382E-04
              -4.0111107158228090E-04
              -4.2042639559265813E-04
              -3.1081789345855548E-03
              -1.4661527300245136E-03
               1.9371820145660948E-03
              -1.4126307078919809E-03
               7.9246521072004581E-04
              -4.3188575603950066E-04
               9.1587175960439356E-04
               1.4217193916698579E-03
               1.8246448202198121E-02
              -8.2716529535494191E-03
              -1.7567294822344474E-02
               1.3542212280306484E-02
              -7.2694127243363594E-03
              -4.4746011989639728E-03
               2.6418524119613388E-03
              -2.3485519178843635E-03
              -1.3734876307884077E-03
               6.3552918309418296E-04
               4.5531433606597217E-03
               7.3855159255370299E-04
              -3.2458442955239563E-03
              -6.3579804446919376E-04
              -6.7090090840396382E-03
              -2.1434583677811176E-03
               3.1270245507586938E-03
              -1.9020145496415786E-02
               4.5545993918945675E-03
               7.4160289338920009E-03
              -1.2689052198238127E-02
               8.5280684417859375E-03
               1.0073044967633305E-02
               5.1203454277198607E-04
               2.4556691140680538E-03
               8.9418326979987060E-03
              -9.7612102721849388E-03
               4.1269707970816366E-03
               4.2352489869242182E-03
               6.8451542189035524E-03
              -3.5022582606336222E-03
               6.5935236081878261E-03
              -1.0719437169615725E-03
               6.8088898571543278E-03
               1.2208386353939624E-03
              -7.1377258684691925E-03
              -7.2034211607612184E-03
               1.0277763046550870E-03
              -1.7305191981151515E-03
              -9.5959569794643144E-03
               7.1322403404335414E-03
               9.9958718033034445E-03
               2.0918112087575769E-02
               1.5622718083197720E-02
               1.3710996856192684E-02
              -2.2320590221835339E-03
               1.0309823137221589E-02
               2.8957118432232407E-02
               6.1115945698991311E-03
               1.7523884302984627E-04
               4.5532433154931551E-02
               2.6177648498249453E-02
               2.5187752169441215E-02
               2.6863216274398720E-03
               8.2123895902647289E-04
              -2.3209541237441860E-03
              -2.3300454540608369E-04
              -1.1109894250804046E-03
              -1.2247585268207370E-03
               1.7871652579487781E-03
              -2.9129020325217299E-03
               9.8907314567393580E-03
               8.3008681112523562E-04
               6.4084925474390143E-03
               6.3170835561072360E-03
               6.6701305202767902E-03
               3.9820808215578329E-03
              -1.2439325079845161E-02
               3.5661654738359107E-04
              -1.7970115140410201E-03
               1.0812742241854086E-03
               1.8488467944390762E-04
              -3.1473612355224253E-03
              -8.0621410308706672E-03
              -2.4378491504688919E-03
               3.2105355040369390E-03
              -8.0191568767991744E-03
               2.2618262991580974E-03
               8.2017829301976892E-03
              -2.4134756782846246E-04
              -1.4405055248358097E-04
               1.3649656238058127E-03
               5.3139782351905194E-03
               1.0797405560016553E-03
              -5.0912569849510267E-03
              -6.0331624976411782E-03
               1.5434452135935554E-02
              -1.1730482173368474E-02
              -7.9884644912638113E-04
              -3.4695883396933789E-03
               3.7170332794975954E-03
              -1.0465880252783499E-03
               2.7834037544868266E-03
               4.7197754883752906E-03
              -2.4707794814242739E-03
               1.0982759025342879E-02
               1.4442407540628454E-03
               4.9810163755629952E-03
               2.0390522007998815E-03
              -5.1598381551340184E-03
               3.0437953269301658E-03
               1.4696341975090508E-04
               3.0162284938987363E-03
               3.1732714827873813E-03
               4.8081323711081543E-03
               2.2515913954321339E-03
               2.9730306593274492E-03
              -4.8496512710200180E-03
               5.0688835605555470E-03
               2.9549197111663084E-03
              -4.6160243653446242E-03
              -3.1874245987724729E-03
              -3.1695561955192519E-03
              -5.8822486735010931E-03
               8.1132567972230958E-03
               1.2443023619946226E-02
               1.3697599549197263E-03
               4.3021862775668050E-03
               2.3447977020654158E-03
               7.2226203900867337E-03
              -1.6730824573275144E-02
               1.5064521588521613E-02
              -1.6028645849810402E-03
              -1.1334186251451130E-02
              -1.7917759196468734E-03
               1.2839165998631721E-03
               7.5593479847829940E-03
               6.9018542649031068E-04
               3.7252595156763665E-03
               6.6045580004395294E-03
              -1.0090453477710523E-02
              -6.2707635808785826E-03
               1.3174614755799880E-02
              -1.2081756751995172E-02
              -6.9285379076807025E-03
               5.8860970192314782E-03
               2.0243423757091510E-03
               4.6706997862451926E-03
              -8.1482818652946556E-03
               1.2066817992538986E-03
              -4.7485060858524380E-04
               6.7171655621668510E-03
               6.1921081552445561E-04
               6.8384159078301804E-03
               1.2163483936748643E-03
              -3.2968373506058980E-03
               3.6348743398333864E-03
               5.0280983500674437E-03
              -9.0729136778909612E-04
               1.7887767426340514E-02
              -4.7042728707748990E-03
               2.0441561185520095E-03
              -2.8364936857754224E-03
               5.7436861043145652E-03
               3.1652108678748244E-03
              -1.3716163703021275E-03
               5.2378134285946797E-03
               6.6337980148451223E-03
               1.0974807390152484E-03
               6.2938259089722779E-04
              -2.7149655391202419E-04
               8.1526950349753800E-03
               8.5838031456027288E-03
              -4.2421901962563319E-05
               2.7304512673628511E-03
              -1.8791547592337662E-03
               5.2091443203085537E-03
               1.0853141832271034E-02
              -8.2500723714545171E-03
              -5.8962115695881419E-05
              -2.6450836614863634E-03
              -4.0765747174584558E-03
               4.4339918236299992E-03
               3.2085730771938309E-04
               4.7811505777844094E-03
              -2.4042212612254118E-03
               1.7038128946402702E-02
              -1.9232127829187126E-03
               7.8425390650255708E-03
               2.4495721869716193E-03
               1.4398299173086766E-03
              -1.1296404062812069E-03
              -8.4896921411410798E-03
               3.3523196322673143E-03
              -3.7246204020674211E-03
               1.9471966567617489E-03
              -1.3568535729836571E-03
              -7.5131968179259902E-04
              -1.1894620567511403E-03
              -7.1623915603812090E-03
              -1.2853663555864613E-03
              -2.1335304777917567E-02
               1.0300495787435188E-02
               6.9497778817793803E-03
               1.2248461646410599E-02
              -1.9751623313227079E-03
              -3.6526120728214650E-03
         &END THERMOSTAT_ENERGY
         &RNG_INIT
Wiener process for Thermostat # 1        1 F T T   1.0570193072987602E-01        2554248455.0        3733268398.0        2096963647.0         915983833.0        1292997779.0         989563289.0             12345.0             12345.0             12345.0             12345.0             12345.0             12345.0             12345.0             12345.0             12345.0             12345.0             12345.0             12345.0
Wiener process for Thermostat # 2        1 F T T  -5.0729818522276993E-01         187792199.0        1332764939.0        1272087322.0         282682701.0         988697858.0        4086000388.0        3692455944.0        1366884236.0        2968912127.0         335948734.0        4161675175.0         475798818.0        3692455944.0        1366884236.0        2968912127.0         335948734.0        4161675175.0         475798818.0
Wiener process for Thermostat # 3        1 F T T   8.9774137220556466E-02        3755061031.0        1753083868.0        1351179932.0         343881147.0        3312142877.0        1244557929.0        1015873554.0        1310354410.0        2249465273.0         994084013.0        2912484720.0        3876682925.0        1015873554.0        1310354410.0        2249465273.0         994084013.0        2912484720.0        3876682925.0
Wiener process for Thermostat # 4        1 F T T   2.1447125495896904E-01        2430503636.0         902227617.0        3039217662.0         205693714.0        2375800914.0        4220709598.0        2338701263.0        1119171942.0        2570676563.0         317077452.0        3194180850.0         618832124.0        2338701263.0        1119171942.0        2570676563.0         317077452.0        3194180850.0         618832124.0
Wiener process for Thermostat # 5        1 F T T  -7.4974817695318574E-01        3949927612.0        4293465109.0         224208328.0         677588237.0        2173092809.0        2514687022.0        1597262096.0        3906379055.0        3312112953.0        1016013135.0        4099474108.0         275305423.0        1597262096.0        3906379055.0        3312112953.0        1016013135.0        4099474108.0         275305423.0
Wiener process for Thermostat # 6        1 F T T  -2.3195632299180402E+00        4147399821.0         968438491.0         174961265.0         382156541.0        3672303660.0        2385050302.0          97147054.0        3131372450.0         829345164.0        3691032523.0        3006063034.0        4259826321.0          97147054.0        3131372450.0         829345164.0        3691032523.0        3006063034.0        4259826321.0
Wiener process for Thermostat # 7        1 F T T  -8.3038096976097500E-03        3725962017.0        3124905816.0        1692649901.0        3685368087.0         990134651.0        3321809881.0         796079799.0        2105258207.0         955365076.0        2923159030.0        4116632677.0        3067683584.0         796079799.0        2105258207.0         955365076.0        2923159030.0        4116632677.0        3067683584.0
Wiener process for Thermostat # 8        1 F T T   7.2955713326517235E-01        1426374835.0        1022225665.0        3431852557.0        2945126969.0        1347790872.0        2047858768.0        3281794178.0        2616230133.0        1457051261.0        2762791137.0        2480527362.0        2282316169.0        3281794178.0        2616230133.0        1457051261.0        2762791137.0        2480527362.0        2282316169.0
Wiener process for Thermostat # 9        1 F T T  -8.3876742673612970E-01        3633457436.0         863053678.0         665967915.0         928783000.0        4027924725.0        3556250224.0        3777646647.0        1837464056.0        4204654757.0         664239048.0        4190510072.0        2959195122.0        3777646647.0        1837464056.0        4204654757.0         664239048.0        4190510072.0        2959195122.0
Wiener process for Thermostat # 10       1 F T T  -6.7138423863751628E-01        3282585865.0         909372753.0         488063086.0        2442536289.0         174422437.0         477575080.0        4215590817.0        3862461878.0        1087200967.0        1544910132.0         936383720.0        1611370123.0        4215590817.0        3862461878.0        1087200967.0        1544910132.0         936383720.0        1611370123.0
Wiener process for Thermostat # 11       1 F T T  -7.2169956836733329E-02        3039538231.0          25912629.0        1608189467.0        1823124278.0        2331127605.0        2449500504.0        1683636369.0         362165168.0         814316280.0         869382050.0         980203903.0        2062101717.0        1683636369.0         362165168.0         814316280.0         869382050.0         980203903.0        2062101717.0
Wiener process for Thermostat # 12       1 F T T  -6.7722400494670465E-01        2762226669.0        4262778377.0        2250707948.0        3120407528.0        3704866228.0        1185520965.0         272317999.0         166758548.0         310112982.0         201045826.0        1680231254.0         118290799.0         272317999.0         166758548.0         310112982.0         201045826.0        1680231254.0         118290799.0
Wiener process for Thermostat # 13       1 F T T  -7.3817531449270457E-01        3689403510.0         367299738.0        3636386471.0        1925893934.0        3355800516.0        3520562622.0        2245755202.0        1652682525.0        2865544364.0         721509566.0         209733568.0         592362218.0        2245755202.0        1652682525.0        2865544364.0         721509566.0         209733568.0         592362218.0