 # Version information for this restart file 
 # current date 2024-12-01 22:20:10.524
 # current working dir /scratch/work/courses/CHEM-GA-2671-2024fa/students/mr6966/comp-lab-class-2024-MR/Week12-IntroAIMD/Runs/Protons
 # Program compiled at                              Sat Dec 12 18:27:15 EST 2020
 # Program compiled on                                         cs001.nyu.cluster
 # Program compiled for                                                nyu-intel
 # Source code revision number                                       git:8c64c6e
 &GLOBAL
   PRINT_LEVEL  LOW
   PROJECT_NAME water_aimd_1ns_every0.5fs
   RUN_TYPE  MD
   WALLTIME 21600
 &END GLOBAL
 &MOTION
   &GEO_OPT
     OPTIMIZER  BFGS
     MAX_ITER  100
     MAX_DR     3.0000000000000001E-03
     &BFGS
     &END BFGS
   &END GEO_OPT
   &MD
     ENSEMBLE  NVT
     STEPS  2000
     TIMESTEP     4.9999999999999994E-01
     STEP_START_VAL  500
     TIME_START_VAL     2.4999999999999795E+02
     ECONS_START_VAL    -1.1026470025575584E+03
     TEMPERATURE     3.0000000000000000E+02
     &THERMOSTAT
       TYPE  GLE
       REGION  MASSIVE
       &GLE
         NDIM  5
         A_SCALE     1.0000000000000000E+00
         A_LIST     1.8595758612559999E+02    2.7263853498399998E-01    1.1526100454610001E+01   -3.6414578262600003E+01 \
             2.3173375816020001E+02
         A_LIST    -2.7809524712060002E-01    8.5951591808710006E-05    7.2189048017650004E-01   -1.9844539343859999E-01 \
             4.2409257583420001E-01
         A_LIST    -1.4825808131210000E+01   -7.2189048017650004E-01    1.3590902121280000E+00    5.1498896280349999E+00 \
            -9.9949268450990001E+00
         A_LIST    -1.0372189126880000E+01    1.9844539343859999E-01   -5.1498896280349999E+00    2.6661910891169999E+01 \
             1.1507715495310000E+01
         A_LIST     2.1801346360420001E+02   -4.2409257583420001E-01    9.9949268450990001E+00   -1.1507715495310000E+01 \
             3.0958394565589998E+02
         &THERMOSTAT_ENERGY
              -2.2331501002501621E-03
               8.4081912088631650E-04
              -1.2704877461759592E-03
              -9.0843154285136598E-04
              -6.1827305137122880E-03
               6.0702406421671044E-03
              -3.9437456296463023E-03
              -6.1911590115631162E-04
               4.9319548125788372E-03
               2.2027391256997935E-03
               6.5858969486403069E-03
              -2.0136376423752606E-03
               2.8775656573619252E-03
              -1.1161329514633397E-03
              -2.1097871465160763E-03
              -3.3686536608937352E-03
               2.9081639418293932E-03
              -5.4031838453798440E-03
               3.5515389018261449E-03
              -2.3014445615526023E-03
               1.1324706692083912E-03
              -2.9735647803145393E-03
               5.1841864259302250E-04
               3.9741868609003304E-03
              -2.1755755325594318E-03
              -1.9499975592259943E-03
              -2.7109501746410093E-03
               3.9281982959311025E-03
              -5.2486454979685441E-04
              -1.0364735654466637E-03
              -1.6862741422726869E-03
              -2.5195475992298329E-03
               2.4652730958443538E-03
              -1.6636077601188913E-04
              -2.8386693841388790E-03
               7.4883706458992016E-03
              -1.4029028685865180E-03
               6.5896714138569102E-04
               7.9982218457033888E-04
              -6.3716363367283370E-03
               2.2171355675246196E-03
              -4.8865996184321490E-04
               2.4071345918361435E-03
               3.1204959051274114E-03
              -5.5822618840607246E-03
               2.3693735879881102E-03
              -1.9051300516303589E-03
               5.4212486601943836E-03
              -1.0175576617114420E-03
              -1.6453399426861303E-03
              -4.8303049291647268E-04
              -7.7624463749268484E-03
               4.3856137071670106E-04
               7.2803054965294494E-03
              -5.6863130388441615E-03
              -2.3126469939219863E-04
              -1.1995574591551207E-04
              -1.6226864730186786E-03
               1.4595205641024407E-03
               3.5962678820884953E-03
               1.0593664920920758E-03
               2.6840789920427170E-03
               4.6495206287732503E-03
               3.7397081645404143E-03
              -2.4847377797131897E-03
              -1.0225634660173451E-03
              -5.1201381577083904E-03
              -4.1354527512735479E-04
               3.7578321975754530E-03
               3.5250721969233055E-03
              -1.2382247047464236E-03
              -4.1670080759552055E-03
              -2.8105869290056852E-03
               2.0660178128280638E-03
              -1.8923215440079717E-04
              -4.8122422523393417E-03
               6.2204949195891817E-03
               6.4686385837355313E-04
               7.7304102947538759E-03
              -1.8125951180810104E-03
              -6.0618982349773367E-03
              -7.9406133732114225E-04
               2.0714877952479503E-03
              -3.0412070617727056E-03
               5.3989745469355008E-04
               1.1349609836736080E-03
              -4.7029060000534709E-03
              -3.7233308782458829E-04
               6.6490859465232800E-04
               3.7358220930790208E-04
               3.6553849362233486E-03
              -4.5940511042065566E-03
              -1.8902299514516351E-03
              -1.6683173356839072E-03
              -7.1877793922222920E-03
               5.3939145027265475E-03
              -1.0976567598898427E-03
               2.4918143640118087E-03
               2.8746998070341683E-03
               1.9463227395102024E-04
               3.0066505751213891E-04
              -4.1532128445316971E-03
              -1.1876514547560777E-03
              -2.7495447430516649E-03
               3.8281536020533932E-03
               3.7143121103533480E-03
               3.3181003054890911E-03
              -1.9444235270391992E-03
               3.7708611281295629E-03
              -3.7166747054105957E-04
               1.0140223473364125E-03
               1.5357624681262513E-04
               2.9954335063305457E-03
               2.0199269173683823E-04
               2.7534803445013875E-03
               3.2798202313473745E-03
              -5.5781472099099248E-03
               1.5954551104407919E-03
              -3.3050436294670008E-03
               1.4168087900531818E-03
               2.0559141495008334E-03
               3.2933469669273446E-03
               3.3111850415323035E-03
               3.4242957503318686E-03
              -5.5162763307461827E-03
              -8.6229504488328677E-04
              -1.1024931340367298E-03
               2.4872629237829469E-03
               5.1242699372128445E-03
               3.1969631326062651E-03
              -2.4685620140791602E-03
               1.9014599026843293E-03
               1.7526215806953362E-04
               2.0258445201316337E-03
              -4.5068113679267267E-03
               7.1593360449126106E-04
              -2.9680451242824679E-03
              -3.3383491438162980E-04
               1.8332548413179149E-03
              -5.6404683132093543E-03
               7.7553119324185963E-03
               2.7463113069558869E-03
               1.6530963918411031E-03
              -2.4714830158951906E-03
              -3.2687812098210404E-03
              -3.6152273551117659E-03
               8.2399239861643517E-04
              -1.5396500306272941E-03
              -1.9762442323031930E-03
               6.0474873444692177E-03
              -2.2786564841587326E-03
               1.5149130098041632E-03
              -1.0998281226834807E-04
              -1.5593738186311836E-03
               5.0211034680788965E-04
              -2.7468570046745486E-03
               2.4774783338704157E-03
               3.7813509424591235E-03
              -3.0024183493486318E-03
               4.3918607058256141E-03
              -5.1116634562028470E-03
              -6.8551873046694548E-04
              -1.1343539937336939E-03
               8.3858009338766231E-04
               8.3593259595586191E-03
               8.0442693797312045E-03
               3.2957199199631932E-03
              -6.8986409955206687E-03
              -3.8452806617765112E-03
               3.0979036402553953E-04
              -7.5427956179827029E-04
               9.9208608528971788E-04
              -1.2035301359142978E-03
               2.2417344138452168E-03
              -2.2327554486244092E-03
              -6.2841491437688583E-04
               7.8087374265365913E-03
              -3.8803174293243316E-03
               6.0711422074420270E-03
               5.0203825114128820E-03
              -1.0584747868693110E-03
               1.3158087626578053E-03
               2.6941897085642169E-03
              -5.6174110243186757E-03
               1.2760911574295980E-03
               1.0788847385870253E-03
              -1.6004586002700051E-03
               6.6754983066223163E-03
              -3.6669384669834803E-03
              -9.9396019986184268E-04
               9.4339382179442667E-05
              -2.2371452315231083E-03
               4.7966425159861699E-03
              -2.7207573066488824E-03
               9.9659720909137757E-04
              -3.1988463589275986E-03
               3.4643860029544989E-03
               1.4878919609032787E-04
              -7.4277758252450381E-04
               2.2244831167635161E-03
              -7.7635217735384419E-04
              -3.1538829176527413E-03
               1.8720480302237869E-03
              -2.1208123277722743E-03
              -1.1659843252087299E-03
              -4.7865403002100605E-03
               2.7442747369174100E-03
              -1.5094207949791283E-03
              -1.5545163271787040E-03
               4.0082518055517590E-03
              -2.5061079003035219E-04
               1.7605199874317927E-03
               5.3775441129868965E-03
               1.8336984907595626E-04
               6.0810877031669316E-03
              -1.8101851919700464E-04
              -1.4605076209844598E-03
              -1.2042064226876548E-03
               1.3223980664945611E-04
              -4.6091241429301530E-03
               4.4423439213032946E-05
               4.3307193272251847E-03
               6.1167764114494630E-04
              -1.8508738627327072E-03
              -1.3021517416882261E-03
               1.2443674064699752E-03
               2.3743937402631615E-04
               4.9721323847732469E-03
              -6.7211139795829260E-03
               1.7624742718443185E-03
              -8.3549008840093034E-03
               3.5677361545032381E-03
               9.6932932427146543E-03
              -4.1889020288955539E-03
              -7.5739472965344703E-04
              -2.0632391144273367E-03
              -7.0045723499694772E-04
               2.2733695893721859E-03
              -4.2118549685758017E-05
               1.1202057546825222E-03
               9.2117420898331207E-04
              -2.7386423506830650E-03
               4.8875646653940138E-03
               3.5703724354021367E-03
              -2.7727801287613964E-03
               3.5140976967094591E-05
              -1.4953372155249557E-03
               8.3773375767691341E-04
               1.5852828221600372E-03
              -4.1862659471352121E-03
               2.6402291300408748E-03
               4.1426242167416551E-04
              -3.5676603695277845E-03
              -2.0898354771125329E-04
               4.3096963356119826E-04
              -5.9176597140508779E-03
               4.6536480494091788E-03
              -1.4314845795238252E-03
               6.7809092644846992E-04
              -7.9162739560933188E-03
               7.0838998592378973E-03
               6.8424540944538373E-04
               3.2785942545608291E-03
               5.3737591021740128E-03
               1.0935013326475104E-03
              -6.6545444606690256E-03
              -7.9470171889257837E-04
               2.0327495995858631E-03
              -1.1582046553027365E-03
               3.3823287292393451E-03
              -3.6591912797086907E-04
              -2.7657814652610785E-03
               3.3143048533430131E-03
               2.2017591737163028E-03
               2.1594512705498865E-03
              -4.6308838621722509E-04
              -4.7544928129200905E-03
               1.4573714771340435E-03
              -5.3850910824471757E-03
               2.4273960108857702E-03
               1.3204544993458099E-03
               3.8619574786519862E-03
               2.5087089434128879E-03
              -2.9880102827795803E-03
              -2.5357625088910066E-03
               3.5256609894901139E-03
              -7.4027523468067754E-04
              -3.3861037179784359E-03
              -2.6452082220028311E-03
               3.1862190371787129E-03
              -3.2312269439547142E-04
               9.6088318788032151E-05
               2.9825344975548101E-03
              -2.4987008199672269E-03
              -8.6360114749535824E-04
               2.1216706147553924E-03
              -7.4903184449037459E-03
              -2.6680496850717402E-03
              -4.4657292529643339E-04
              -3.3000533776921526E-03
              -4.0948478474349881E-03
               9.7574930215477366E-03
               5.1601028899211469E-03
               1.2985992272206974E-03
               5.6566277567837069E-03
              -3.2066699141400719E-03
              -3.1623294366270012E-03
               6.0213997447943062E-05
               2.4200511714362874E-03
               3.6778962728089668E-03
               8.1754233686297327E-05
              -9.1591445388505000E-03
               6.2425832562078920E-03
               2.6771918683756858E-03
               2.9020057376258554E-03
               9.7289822246474989E-04
               6.5731186639140073E-04
               3.2093727878014832E-03
              -4.2228397826889587E-04
              -3.2994570620199833E-03
               8.9723883265898710E-03
              -5.0457119850826093E-04
              -7.9150848235003419E-03
               8.0570347459712303E-03
               1.7300658485776488E-04
               4.0925483908878842E-03
              -3.4686203276596246E-05
               5.5634680904923213E-03
               3.5360478513392747E-03
              -6.8441583392145136E-03
              -2.3289716518250249E-03
              -8.1281394885794733E-03
               6.7052526345300094E-03
               3.2633593255569784E-04
              -2.4684016571185257E-04
              -1.1237980785651748E-03
               6.3321713794828420E-03
               4.0026616235496167E-03
              -4.1079293751647592E-03
               5.1714967223462859E-04
              -1.3937770899835221E-04
               1.5178646234423456E-03
               1.6682502468782954E-03
               2.0819642589775078E-04
              -1.5895361685532982E-03
              -3.1245800592959233E-03
               6.3618361175790941E-03
              -2.8279611159555602E-03
              -4.5636658625282638E-03
              -3.7913577975890798E-03
               4.6749693556905978E-03
               7.3239979973118248E-03
              -6.3021527608869881E-03
               5.2300991928172513E-04
              -2.2711521957747085E-04
               3.0022825137951872E-03
              -2.4721172627884267E-03
              -2.3700171094838047E-03
              -2.6973869292298068E-03
               1.0476819321768869E-02
              -1.3104867731530089E-03
              -2.8455258140609513E-05
              -4.7946960111463809E-03
              -9.1775737017207020E-03
               1.6953018443593413E-03
               1.2280470693053287E-02
               2.3897271792891737E-03
              -1.2982878100559364E-03
              -1.8554802108752273E-03
              -9.5492012803485783E-05
               2.0253221317339835E-03
              -1.6872124349177008E-03
              -8.6434881467763128E-03
              -1.2605840489186401E-03
               4.4665806283905240E-03
              -3.3266791784108888E-03
               1.2705511938155608E-03
               5.1844405883642924E-03
              -7.1366320214660969E-04
              -1.4620078722279480E-03
              -2.0963266191684699E-03
               5.0514362170420964E-03
               9.1942212746962751E-03
              -2.0299737365780473E-03
              -1.2104671281937420E-02
               5.3865111699238754E-03
              -2.1776627735664534E-03
              -4.9468977131749648E-03
               6.4575866887446934E-04
              -1.8361317122999618E-03
               8.9941696849109157E-04
               9.6576543789875160E-04
               1.5001139193951676E-03
               5.8195770474557184E-03
              -4.9786058532370015E-03
              -1.6110794763811551E-03
              -3.2733510552360413E-03
               1.9172588401945309E-03
              -4.7045068775609423E-04
              -6.9035723634608536E-03
              -2.6959559691258645E-03
               6.9609873477216085E-03
              -8.9420893206989503E-03
               2.2466244101715881E-03
               5.8639669295940094E-03
               1.8689578299131504E-03
              -2.4942564241892747E-03
               3.4473850476636177E-03
              -7.8677977692520069E-03
              -2.0627750487242093E-04
               4.6010013379117415E-03
              -4.2798524049344746E-03
               2.1835554637445486E-03
               2.0986105947581003E-03
              -1.9765720394333683E-03
              -9.0815018287510095E-04
               4.5574609778257775E-04
              -1.6890147915791483E-03
               4.8954572212738369E-04
               9.0802610310112119E-03
               9.2027807651697566E-04
              -3.3286344108930817E-03
               1.0711152864713821E-03
               1.2828876584088074E-02
               1.1867108150694644E-02
               8.4971592915791833E-03
               1.1526072125981904E-02
              -3.5556256082464599E-03
               7.2912449916709299E-03
               3.2576667522409897E-02
               9.2461338133908704E-03
               5.1032793271917013E-03
               5.5503994234595962E-02
               2.6671250729626075E-02
               1.4985024355403670E-02
               2.4275089311267613E-03
               3.6014005972568024E-03
              -8.7132908063831732E-04
               4.1535644129471044E-04
              -7.9942605131160514E-04
              -5.3943739807114260E-04
               4.2361255165015042E-03
              -2.0521712151812034E-03
               2.5715413257998494E-03
              -6.6878337486615412E-04
               7.5332539956909413E-03
               4.7601023011870549E-03
              -1.5802229506194567E-03
              -7.9444153299337264E-04
              -2.4717222314253173E-03
              -1.9760529248611875E-03
              -4.5902292910307329E-03
               8.2307136523717926E-03
              -5.2062295109103068E-04
              -8.4132796090951136E-04
              -3.7492060877759192E-04
               1.4235050530732303E-03
               2.6661446095203813E-04
              -3.8061241894624493E-03
               2.1717865526828684E-03
               9.0256461737424495E-04
               1.3987281706101327E-03
              -3.1808396326129477E-03
              -1.6453583765630537E-03
               5.9144647661672914E-03
               7.0048443072475764E-04
               5.0949948862193638E-04
              -2.8141726668974667E-03
               5.3255470801088474E-03
               5.8018130333593486E-04
              -4.8394240131517550E-03
              -1.6283926417993864E-03
               3.0397431139892305E-03
              -1.4773247427100427E-03
              -2.1874169326813239E-03
               4.7228744774047461E-03
               2.6897371524681832E-03
               3.4589835488546693E-03
              -3.2398654817485818E-03
               5.7286884884376480E-03
               1.0227721088093174E-03
              -1.6353837129249548E-03
               1.2392055706649183E-03
               3.1487695730891981E-04
               1.8727696296851816E-03
              -6.2558039285536351E-05
              -8.4133092219990091E-04
              -5.5239490173741154E-03
               9.9649126981013339E-04
              -2.2547232326225238E-03
               4.6798065924168788E-04
               3.6329989057171121E-03
              -2.6601691652001326E-03
              -3.0557381061323994E-03
              -1.6564690289286052E-03
              -5.0217157410809296E-03
               6.5301418287923747E-03
               8.9348738466010266E-03
               5.3890939155600255E-03
               4.8591906736536973E-03
              -2.0722047775865236E-03
              -2.8477391530385456E-03
              -1.2503369150384788E-02
               7.0457452495902764E-03
              -2.4022446222259045E-03
              -5.2668469079686633E-03
               4.3420263138503881E-03
              -1.3740952869657269E-03
               1.7302668714720641E-03
               1.0802323775625415E-03
               4.6641406546278907E-03
               9.1661386188022901E-04
              -3.3214055197344815E-03
              -3.5102605952484155E-03
               6.6268270279964763E-04
               1.7377609079548132E-03
              -7.1201879461074494E-03
               4.1098059076341408E-03
               4.2501446384448612E-03
              -1.9695821519704667E-03
              -1.2970873826793580E-03
              -2.3833630912706168E-03
               2.2678712393539783E-03
              -5.7480965986001355E-04
              -1.0819597455694513E-04
               9.5780944422988127E-03
               3.4598253898419007E-04
               5.1000987541254396E-04
               7.8280120440393196E-03
               9.3128264176675045E-03
              -5.4812100415751932E-03
               1.4124212761128102E-02
               3.4354719382118414E-03
              -2.9227051575385007E-03
               3.9322692176614830E-03
               1.7845375234925047E-03
               6.5897096455522794E-04
              -1.1782143353863529E-03
               2.5533691564204211E-03
              -1.6877889344024747E-04
               2.5245748783487756E-03
              -9.8693464914537598E-04
              -8.8782964278932754E-04
               3.5554804187865573E-03
               3.3086000654159735E-03
              -1.9204104641795986E-04
               1.2220138580027240E-04
               3.4972391061800531E-03
               1.2630398271379500E-03
               5.0840621398015801E-05
              -4.8509356713537666E-03
               1.1003898252256790E-03
              -2.3421699228747790E-03
              -1.1080961733953038E-03
              -1.2414453732206030E-03
              -6.2475811682276075E-03
               7.7960752578745110E-05
               2.3359537515449879E-05
               8.0942698332076759E-03
               1.6197014856856142E-03
               7.0053777824673116E-03
               8.9633884668055108E-04
               1.7480850269678246E-04
               1.1992661560168982E-03
              -2.1787208298833390E-03
               5.5060558465590236E-03
              -7.2757303247693141E-03
              -5.0531107751514261E-03
               7.3342713710796512E-03
              -5.3108484858317793E-03
               1.6173052698501653E-03
              -4.2935540831666825E-03
              -2.9199479801221206E-03
              -8.0502733358281866E-03
              -1.6679816769989266E-03
              -3.6537438686593026E-04
               3.1150238941147950E-03
               4.7672466613267808E-03
              -1.2773326835725399E-03
         &END THERMOSTAT_ENERGY
         &RNG_INIT
Wiener process for Thermostat # 1        1 F T T  -1.5505429657892764E+00         661802595.0        2026459976.0        3136775027.0        3268219721.0        1056216878.0        3744216088.0             12345.0             12345.0             12345.0             12345.0             12345.0             12345.0             12345.0             12345.0             12345.0             12345.0             12345.0             12345.0
Wiener process for Thermostat # 2        1 F T T   1.5766939834860993E-01        2521559082.0        1979391111.0        3972826820.0        2839528192.0        3960449033.0        3051881342.0        3692455944.0        1366884236.0        2968912127.0         335948734.0        4161675175.0         475798818.0        3692455944.0        1366884236.0        2968912127.0         335948734.0        4161675175.0         475798818.0
Wiener process for Thermostat # 3        1 F T T  -1.6802103653762466E+00        2464096834.0        3454226368.0         668358963.0        3607867155.0        2139338144.0        1695442074.0        1015873554.0        1310354410.0        2249465273.0         994084013.0        2912484720.0        3876682925.0        1015873554.0        1310354410.0        2249465273.0         994084013.0        2912484720.0        3876682925.0
Wiener process for Thermostat # 4        1 F T T  -9.2120442907176847E-01        3007810664.0         626544053.0           5688727.0        2019501767.0        4050809287.0        2188826537.0        2338701263.0        1119171942.0        2570676563.0         317077452.0        3194180850.0         618832124.0        2338701263.0        1119171942.0        2570676563.0         317077452.0        3194180850.0         618832124.0
Wiener process for Thermostat # 5        1 F T T   1.9586792436148486E+00        3119398129.0        2238966874.0        1731687009.0        1729823850.0        3912388439.0         182524877.0        1597262096.0        3906379055.0        3312112953.0        1016013135.0        4099474108.0         275305423.0        1597262096.0        3906379055.0        3312112953.0        1016013135.0        4099474108.0         275305423.0
Wiener process for Thermostat # 6        1 F T T  -2.2012851380256623E-01         527820745.0        2447393615.0         338698828.0         653439858.0         976211817.0        3944196308.0          97147054.0        3131372450.0         829345164.0        3691032523.0        3006063034.0        4259826321.0          97147054.0        3131372450.0         829345164.0        3691032523.0        3006063034.0        4259826321.0
Wiener process for Thermostat # 7        1 F T T  -1.2191095662093037E-02         167278661.0        2992638024.0        1197931920.0         124710794.0         889033703.0        2194094787.0         796079799.0        2105258207.0         955365076.0        2923159030.0        4116632677.0        3067683584.0         796079799.0        2105258207.0         955365076.0        2923159030.0        4116632677.0        3067683584.0
Wiener process for Thermostat # 8        1 F T T  -2.6373530393371375E-01        2923147749.0        3809475671.0         892364519.0        3114385888.0        3523415917.0        3402922821.0        3281794178.0        2616230133.0        1457051261.0        2762791137.0        2480527362.0        2282316169.0        3281794178.0        2616230133.0        1457051261.0        2762791137.0        2480527362.0        2282316169.0
Wiener process for Thermostat # 9        1 F T T  -1.2388913960989989E+00         276694386.0        3384434371.0        2194062143.0        3864498526.0        2498625561.0        4174179731.0        3777646647.0        1837464056.0        4204654757.0         664239048.0        4190510072.0        2959195122.0        3777646647.0        1837464056.0        4204654757.0         664239048.0        4190510072.0        2959195122.0
Wiener process for Thermostat # 10       1 F T T  -6.9271884074884071E-01         298842605.0        4183294382.0        3769908432.0        1623977651.0        3452521187.0         349927101.0        4215590817.0        3862461878.0        1087200967.0        1544910132.0         936383720.0        1611370123.0        4215590817.0        3862461878.0        1087200967.0        1544910132.0         936383720.0        1611370123.0
Wiener process for Thermostat # 11       1 F T T  -3.9199517781213300E-01        1183014876.0        2469777470.0        2706060047.0        1374668043.0         490283634.0         131761905.0        1683636369.0         362165168.0         814316280.0         869382050.0         980203903.0        2062101717.0        1683636369.0         362165168.0         814316280.0         869382050.0         980203903.0        2062101717.0
Wiener process for Thermostat # 12       1 F T T   1.2248374085476998E+00         744312290.0        1838623065.0        1895433531.0        2930723882.0        3034111406.0        1223209339.0         272317999.0         166758548.0         310112982.0         201045826.0        1680231254.0         118290799.0         272317999.0         166758548.0         310112982.0         201045826.0        1680231254.0         118290799.0
Wiener process for Thermostat # 13       1 F T T   1.6053528300026945E-02         341235087.0         365462780.0         607175623.0        3292057964.0        1611524565.0         256574977.0        2245755202.0        1652682525.0        2865544364.0         721509566.0         209733568.0         592362218.0        2245755202.0        1652682525.0        2865544364.0         721509566.0         209733568.0         592362218.0