 # Version information for this restart file 
 # current date 2024-12-01 21:08:17.524
 # current working dir /scratch/work/courses/CHEM-GA-2671-2024fa/students/mr6966/comp-lab-class-2024-MR/Week12-IntroAIMD/Runs/Protons
 # Program compiled at                              Sat Dec 12 18:27:15 EST 2020
 # Program compiled on                                         cs001.nyu.cluster
 # Program compiled for                                                nyu-intel
 # Source code revision number                                       git:8c64c6e
 &GLOBAL
   PRINT_LEVEL  LOW
   PROJECT_NAME water_aimd_1ns_every0.5fs
   RUN_TYPE  MD
   WALLTIME 21600
 &END GLOBAL
 &MOTION
   &GEO_OPT
     OPTIMIZER  BFGS
     MAX_ITER  100
     MAX_DR     3.0000000000000001E-03
     &BFGS
     &END BFGS
   &END GEO_OPT
   &MD
     ENSEMBLE  NVT
     STEPS  2000
     TIMESTEP     4.9999999999999994E-01
     STEP_START_VAL  9
     TIME_START_VAL     4.4999999999999991E+00
     ECONS_START_VAL    -1.1026470025575584E+03
     TEMPERATURE     3.0000000000000000E+02
     &THERMOSTAT
       TYPE  GLE
       REGION  MASSIVE
       &GLE
         NDIM  5
         A_SCALE     1.0000000000000000E+00
         A_LIST     1.8595758612559999E+02    2.7263853498399998E-01    1.1526100454610001E+01   -3.6414578262600003E+01 \
             2.3173375816020001E+02
         A_LIST    -2.7809524712060002E-01    8.5951591808710006E-05    7.2189048017650004E-01   -1.9844539343859999E-01 \
             4.2409257583420001E-01
         A_LIST    -1.4825808131210000E+01   -7.2189048017650004E-01    1.3590902121280000E+00    5.1498896280349999E+00 \
            -9.9949268450990001E+00
         A_LIST    -1.0372189126880000E+01    1.9844539343859999E-01   -5.1498896280349999E+00    2.6661910891169999E+01 \
             1.1507715495310000E+01
         A_LIST     2.1801346360420001E+02   -4.2409257583420001E-01    9.9949268450990001E+00   -1.1507715495310000E+01 \
             3.0958394565589998E+02
         &THERMOSTAT_ENERGY
              -6.7485038266351140E-04
               4.1896393729089638E-04
              -8.2843284426131997E-04
              -1.6707557438801115E-03
               1.4367632238083521E-04
              -1.0630442636770738E-03
              -3.9020660667307510E-04
              -6.3439789746458472E-04
              -6.7152801067715427E-04
               2.8506185364225831E-04
              -2.3951467566690433E-03
              -4.1190838595018425E-04
               9.3380005485328775E-04
              -9.5954674626089079E-05
               1.1059506437186250E-04
               1.1577010571995875E-04
               8.4434539672839171E-06
               2.5679751645997696E-04
              -1.2526094830667435E-04
              -5.7439981204918523E-04
              -2.9331896931125462E-05
               1.9205047667067553E-03
               5.1228139296745530E-04
              -2.3917924773740915E-04
               2.2744663892690448E-04
              -1.8130758430136662E-03
               5.9939610137463848E-04
              -3.4853584987552095E-04
               1.1819347809082479E-04
               1.0131543188850425E-04
              -7.5313688047551634E-04
              -8.5251682217273137E-04
              -2.3384974618197909E-03
              -6.5078651829151990E-05
               3.3125261653549928E-04
              -4.1535622519135376E-05
              -2.0405405731717323E-04
               1.2194870631427511E-04
               5.0675426837028617E-04
              -4.7983019430200552E-04
              -7.2122695102371003E-04
              -2.4345967888739803E-05
              -1.2960489617231260E-03
               1.0238454470349535E-03
              -8.4898692061573765E-04
               1.8713698865708314E-03
               6.7958529453909631E-05
               2.9249177394437433E-04
               8.6271148350313223E-04
              -5.4874572076097565E-04
              -2.5328413788621167E-04
               3.4826271707637458E-04
              -7.3832395382379559E-04
               8.0424011302751582E-05
              -4.6369422344436372E-04
               6.9198514127211070E-05
              -6.3097010713586616E-04
              -2.7298710218923270E-04
               3.2290419672021011E-04
              -2.4565068915176282E-03
              -6.8472246842779896E-04
               1.2350442348047239E-03
               8.5764783234836060E-04
               9.2057210985181247E-04
              -2.2551615858982090E-04
               3.0869760741117770E-04
               6.4512849705483622E-04
               5.9898945113947394E-04
              -6.0386695642086795E-04
               7.6149031532662210E-04
              -8.4101912173391443E-04
               1.4263974029427959E-03
              -1.5553970447322648E-03
               9.5562625024668920E-05
              -9.6385733356777847E-04
               1.0736070965396657E-03
               2.0360294874270738E-04
               1.0461174264660086E-03
               6.8621540257608662E-05
              -6.5103247229736957E-05
               5.5760702529834608E-05
               2.1309522264216935E-05
              -1.6072406729522937E-05
              -8.1282728155034653E-05
               1.2757323935782701E-03
              -1.9021705158539992E-04
              -3.4510114676517402E-04
               6.4899140756942344E-04
              -3.0364298534117385E-06
              -7.0349821602569472E-04
               3.2029672145163332E-04
              -9.2882624684844468E-04
               2.8472256526064483E-04
              -1.1066667641930093E-03
               2.4052671902204475E-04
              -4.1409533454691487E-04
              -2.0194423086033781E-05
              -1.7192807544302640E-03
               7.0687633525849311E-04
               2.1005231236858793E-04
              -1.9881864988644804E-03
               8.1441690625715351E-04
              -7.0757448748872830E-04
               1.2018594922335864E-04
               2.3032352374139557E-05
               6.2990749382354377E-04
               1.1401948956118472E-03
              -1.2579664136742761E-04
               1.0015047125119085E-03
               5.7199879331833311E-04
               6.2352189975848450E-05
               1.8936647289041392E-04
               1.0742912446139109E-03
              -7.9710666750162028E-04
              -3.0388601613175409E-04
               4.3474969820577966E-04
              -1.1627395508583584E-03
               1.2015965010654813E-03
               7.2542887103526472E-05
              -1.1520983547499072E-06
              -2.8485772191386589E-04
               1.9340797480136659E-04
               1.1789582391502277E-03
              -5.6571297939381183E-04
               9.1133886355342783E-05
              -1.6432156926993955E-04
              -5.1749473862857439E-04
               5.3153811213567707E-04
              -1.5669752067539719E-04
              -2.2309417437620946E-03
              -4.4638407842334884E-04
              -7.2364617465680149E-04
               1.7309240893230667E-03
               4.3716240737527414E-04
              -2.4853258627140554E-04
              -5.5202215865814743E-05
               1.6252174572435539E-04
              -3.1316069722721958E-04
               5.8516318778336956E-04
               1.0249742008556608E-03
              -3.0657900949757218E-04
               4.9060380349861860E-04
              -4.2345216129695479E-04
               1.9809217389371114E-04
              -3.5692021631590306E-04
               3.7089774616081279E-04
              -1.0393978979505666E-04
              -7.5686040625817948E-04
               1.2313869600715839E-04
               3.2475105859173083E-04
              -2.5819014278953377E-05
              -2.8234038844465764E-04
               2.9342899342324827E-04
               3.7159792584666934E-04
               3.5970169366247585E-04
              -1.1782215958391115E-04
               6.1711042806907208E-05
              -1.2263800563083876E-03
              -2.8720781931858372E-04
              -8.2964709113409927E-04
              -5.2344238071975212E-05
               2.7461593500377526E-05
              -9.0579407938915846E-04
              -3.4641230499045134E-04
               1.4831329303535087E-03
              -2.1710980874197042E-04
               8.2088359143612046E-04
               5.1951662549765544E-04
              -8.9117688110068290E-04
               2.0035762974715771E-04
               7.8543373415910372E-05
               1.0374863007804732E-03
               2.5708932950904668E-04
               3.6653862201276293E-06
              -3.9835451513135854E-05
              -2.3344243878100664E-04
              -7.7730503293589690E-04
              -3.3949597775195540E-04
               3.0131924083256605E-04
               2.9036678877532242E-04
               4.2265599718902501E-04
              -1.1590093590627836E-04
               5.6073760382045876E-04
              -5.7363558111772498E-04
              -8.9442497164725636E-04
              -4.5594239266300428E-05
              -3.1128812583533169E-04
              -9.0551796546128058E-04
              -5.7559164483673606E-04
               1.6348287654362312E-04
              -4.0927449748425187E-04
              -4.3937262734918941E-05
               5.5172960708132427E-04
              -8.2383858544434157E-04
              -7.7609661432224931E-09
              -1.1351684359586463E-03
              -3.7529453802546118E-04
               6.2962577169896306E-05
               6.3113443057534783E-04
               8.1226201272858783E-05
              -9.5508073110537684E-04
              -6.6164802708688387E-04
              -5.9507960179616356E-05
              -9.3841979140328081E-04
              -2.5172353391675600E-04
              -9.2611636486591531E-04
               1.3183387434922674E-03
               3.4674659517439354E-04
               4.6815212753019322E-05
               2.3382863632972210E-03
              -4.7426883172135327E-04
               1.0821657713031504E-03
               1.7578061912973976E-03
              -2.3199028829032102E-03
              -1.7640775482427755E-04
              -1.3559076490367327E-04
              -1.4286289288814619E-03
               1.8138672738283313E-04
               1.3742447196499435E-04
              -5.0748663338315444E-04
               1.2526544572391423E-03
               6.3019619059678046E-05
               3.1607030806846099E-04
               7.9065870522576425E-04
               4.4618069225765771E-05
               6.6028052844413682E-04
               9.4438938866038850E-04
              -1.1948939407107606E-03
              -2.9126186496523021E-04
               1.4168559471352898E-03
              -9.2992544641109815E-04
               1.2346838414654660E-03
               1.1934163422630474E-05
               6.2889841720364459E-04
               6.8196814629113090E-05
              -1.0080539696698965E-03
              -2.3182894853205093E-03
               3.0519695788331800E-05
               4.6277745381894043E-04
               9.8251190584320642E-05
               1.6546364708639176E-04
              -6.5526814276328137E-05
               1.4601528111992306E-03
               2.0148382622274526E-03
              -2.4077660031969771E-04
               1.0366787809319938E-04
              -3.4274308055620175E-05
               1.5916058123682992E-05
              -1.2952594276749836E-04
               6.1141576365222330E-04
              -1.6833793073194346E-04
               3.3319245988997197E-04
              -1.2361774115785804E-03
              -1.7582986454064986E-04
              -1.3038876715559531E-04
               1.7958512740056407E-05
               3.1960156239139656E-04
              -2.6775437484154505E-04
               1.1697645242649544E-03
               2.1458108596754898E-04
               1.5774162542777449E-04
               3.5840343943739742E-04
              -1.2483386738379601E-05
              -3.4243271383748641E-05
              -3.0030867770900534E-04
              -1.5493549806499808E-04
              -2.2772197597482088E-04
               1.0782071250872781E-03
               1.9456288003565187E-04
              -4.5335403130963110E-04
              -9.9241595604750653E-05
               2.0320212327461663E-04
               3.6039813261349110E-04
               3.8648061700920396E-04
              -1.3186399236909782E-03
              -1.1386534571899337E-04
              -2.3298476654160348E-05
              -6.8797732843961469E-04
               5.9635196059901706E-05
              -4.4483061527925659E-05
              -3.2421301933692963E-04
              -1.6668971129839263E-03
               6.1404482480574010E-04
              -7.6521161049446478E-05
              -8.8031670998861208E-04
               3.1363967335534934E-05
              -1.6604139943288002E-03
              -1.2794197074599632E-03
               9.0312994709540050E-05
              -8.9112374302928996E-04
               7.1051318489564726E-05
               6.1898427342767031E-04
              -8.4404110636069195E-05
              -7.0974006950529317E-04
               5.1348996682628505E-04
              -3.4835538698290569E-04
              -4.6612838723447859E-04
              -1.7456488608963297E-05
              -9.8380832623185747E-05
               2.4559133682553228E-04
               9.6620931638394074E-04
               5.0250314759191748E-04
              -1.2052373837097949E-03
               1.8391833438424827E-04
               8.8681615331175556E-04
               2.6121853777881667E-04
              -8.8894486199383860E-05
               5.0609301541188888E-04
               1.6486868067853080E-04
               2.3595936673291958E-04
              -6.9088457105051320E-05
               9.4165617725852468E-06
               3.2969039155975716E-03
              -1.1381918789225371E-04
              -3.5909368665992846E-05
               7.0059460302529508E-04
              -5.8277223056118490E-04
               9.4220680754190402E-04
               6.4566895369437181E-04
               1.2812099274525281E-03
               4.5745067724986538E-04
               4.7574073273626456E-04
              -6.3693686842868709E-04
              -5.4333443002434114E-04
              -1.1535846205073970E-03
               1.5993342277327433E-04
              -3.9567620801289258E-04
              -1.5173010811918132E-03
              -2.2427008305019028E-04
               4.5945158796338825E-04
              -7.9811713307973418E-04
               5.2025589658332653E-04
              -1.9543241590600085E-04
               8.2534480397041562E-04
               7.6580628359534247E-05
              -6.9161833073613419E-04
               1.5734667263877515E-03
               1.5684238988533276E-04
              -1.2362198112471714E-04
              -3.8624849726368184E-04
              -4.4357465464462224E-05
               5.2185459261855306E-04
               1.3184695925829814E-03
               2.8465982070674300E-04
              -2.4817702494098833E-04
               9.7188811446373858E-05
              -1.0547331836966895E-04
              -3.3738129002910792E-04
              -9.0946243660498154E-04
              -5.5525379126310649E-05
               1.3036731258578874E-04
              -8.2648016877959912E-05
              -1.2901155344141905E-04
              -2.5754816446096120E-04
              -1.0288618701310843E-04
              -6.4795468018350778E-04
               4.5552748701001950E-04
               2.8068368450337141E-04
               5.4948675529345795E-04
              -1.0552310989239127E-04
              -6.0738186950843286E-04
               2.0766510471539274E-04
              -3.0564772647082418E-04
              -5.7442367737313004E-04
               1.4446678781710300E-07
               6.2417394735490221E-05
              -7.8280615247036209E-05
              -1.3744941274035087E-05
              -4.1301540391369489E-04
              -5.7303160333231043E-04
               3.6948325382916980E-04
              -7.4866851279617734E-04
               6.3609862140551264E-04
              -1.3858946823991984E-04
              -1.4060456152670457E-04
              -2.1842005488232211E-03
              -3.2100146766735917E-04
               4.7328991015001363E-05
               8.8267109052846181E-05
               9.2668794389530007E-04
               1.3311073471570308E-04
               4.6206012345274204E-04
              -1.1996473687864932E-05
              -5.5333052127778341E-04
               2.4491031115679698E-04
               1.1819663421310943E-03
               9.5437410130310750E-05
              -5.0395856906437444E-05
               3.5667898566865756E-04
              -7.4813629602007157E-05
               5.5716078812646883E-04
               7.1350829250888990E-04
              -2.9229300477318337E-04
              -7.9465155304729162E-04
              -3.8494511679966736E-04
              -5.2962508615979277E-04
               1.1449910459250278E-03
              -1.2183042706988799E-05
               3.5850143379594112E-04
              -1.2388907664190778E-03
              -1.3758738532139978E-03
               5.9383833041174523E-04
               2.4623152778398928E-04
               2.2160020136244063E-05
              -5.6384314669253335E-05
               3.8160574640659590E-04
               1.8169785583237827E-05
               8.6687631723820634E-04
              -3.2010007186152934E-04
               2.6216670801291423E-04
               2.1505199398663542E-04
               5.2073193661385134E-04
               1.8793385615783098E-04
               1.2982332636131406E-03
               5.1070853095651444E-05
              -3.9186620045357208E-04
              -8.7754737299325066E-04
              -7.4983849439053888E-04
               3.4730591943503409E-04
              -6.7469545763456295E-04
               3.4107990449466438E-04
              -7.8387178420503793E-04
              -1.0670596739205634E-03
               6.2973984875806907E-05
               5.0938061041720488E-04
               9.1500787754850051E-03
               2.1861115488603024E-03
              -2.3881948269770519E-04
               5.8606498221069469E-04
               1.1244010254787815E-02
              -5.4857275567695113E-04
               4.4175457139933414E-04
               1.9505471308358243E-03
              -5.2359339128445865E-04
               1.7455990585049223E-03
               3.2694310085986641E-04
              -7.6281838322670936E-05
              -7.5835750039762877E-05
              -3.6090686442517313E-04
              -5.1723976255278737E-04
               5.4688205676260314E-05
              -1.5586459106337958E-03
               4.4928496267483112E-04
               1.7437647116051733E-03
              -2.1513602173154025E-04
               1.5278890807797629E-05
               9.0715316786357672E-05
              -4.3383703776280554E-05
               7.4103566810315225E-04
               4.0628971224228392E-04
              -8.4453059220476246E-05
              -8.4460862703579194E-04
               1.9336827971513026E-03
               5.5758110560753392E-04
              -1.0044574168321875E-03
              -1.4268878102616434E-04
              -4.6041176946692630E-04
              -4.6560885368571343E-04
              -4.7604891652164506E-04
              -1.9130901690873900E-03
              -6.9542698161386579E-05
              -1.6375785979088951E-03
              -2.4920974069690400E-04
              -1.4292120182660085E-03
               5.0616807921538770E-05
              -5.5955380675373821E-05
               1.3560060200097201E-04
              -1.5409457613030910E-03
               9.1374422112882995E-04
              -1.0488927218601631E-03
               3.3317643630272715E-06
               3.0960654424684847E-04
               9.8002893123236854E-04
              -4.5598873440750199E-04
               1.6140763170282877E-04
               1.0643342881163876E-03
               2.6122769206238447E-05
              -4.4213751015915694E-05
               8.3386553896590504E-04
               3.0746780855028842E-04
               1.9595782961327264E-03
               2.5580601286393038E-04
               1.3083968495772441E-03
               1.0114737125483449E-03
              -1.2851998201136557E-04
               5.7672630028180990E-04
              -3.2993023492159436E-04
              -7.1818493623955688E-04
               5.3771749863115812E-05
               3.6128879288611530E-04
               1.7484894702767993E-04
              -1.7710512631737322E-04
               1.2507057438843816E-03
               1.5194884883104628E-04
              -2.4756267235245171E-04
               1.2033719334576538E-04
               5.2825344357083155E-04
              -2.3408147118224700E-04
              -8.5137497086225345E-04
              -5.7572074064906156E-04
               1.2113083141378110E-04
              -7.3023234129391298E-04
              -3.1998562552952028E-04
               2.6749833506206931E-04
              -1.8451602412640085E-04
               2.1766845856082605E-04
              -1.0530962501591658E-03
               8.3801468404839799E-04
              -1.2606517323296196E-04
               7.3177891817864329E-06
               1.9302026028693211E-05
              -7.2059057668493018E-04
              -3.8553897071575197E-04
               7.6640874165330788E-04
              -2.8693266515581427E-04
              -1.1541704349681374E-03
              -4.2384916551794252E-05
               1.8266543522114966E-03
               4.6752801512178673E-04
               1.3601474371051158E-04
              -2.8032010045150120E-04
               3.6729933524307036E-04
               7.5845592662990670E-04
              -1.1195368733972230E-03
              -1.0464237292284463E-04
               1.8791956623012511E-04
               9.1938185110918382E-04
               1.5230933654050447E-04
               1.3863909799566700E-03
               7.2321483172479458E-05
               8.4216299149929578E-04
              -3.4469425138053915E-04
               7.9044783688544972E-04
               2.2197175753955448E-05
               2.5818432806249027E-04
              -2.4436521834761134E-05
              -4.5145734320930711E-05
               1.5259346849825256E-04
               4.3058134577546417E-04
              -9.7597365411043215E-05
              -1.7425066559479448E-05
              -7.2409095509823936E-04
               3.8806785073170462E-05
               2.0979744009459083E-04
              -2.8138693190801018E-04
               5.9379153084875338E-05
               3.7416091174207518E-04
              -2.5386072747188597E-04
               1.2571578441665857E-04
               1.7430900620351430E-03
              -2.6768918244692269E-04
              -9.8548125476209062E-04
              -3.4893991055168607E-04
              -1.7237398743587528E-04
              -4.2708534880840660E-05
              -6.9661971026343790E-04
              -1.4834461313846200E-04
              -1.3195838821230918E-03
               4.3125765947811421E-03
              -1.1463973935203285E-03
               2.9762541703690223E-04
               3.3864194613623597E-05
               1.4924186791833344E-04
               1.1961913802143764E-03
               6.9384144877492667E-04
              -1.1327048330761901E-03
              -4.9483648550945059E-04
              -4.5911981400362993E-04
               1.1410527461842059E-04
               4.9194388531653699E-04
              -1.4709415844220658E-04
               9.7905795839988699E-04
               3.3661007258845911E-04
               2.6625193062299041E-04
              -3.0201659229327259E-04
              -5.9678859810141627E-04
               1.1722301422543661E-03
              -7.0690045924127798E-05
               3.4345250808217036E-04
         &END THERMOSTAT_ENERGY
         &RNG_INIT
Wiener process for Thermostat # 1        1 F T T   3.3969200071591077E-01        1130888526.0        2315007001.0        2340590093.0        2733972206.0        4223164271.0        2363045621.0             12345.0             12345.0             12345.0             12345.0             12345.0             12345.0             12345.0             12345.0             12345.0             12345.0             12345.0             12345.0
Wiener process for Thermostat # 2        1 F T T   2.7143849310376361E-01        1835829077.0        2320443677.0        3459999527.0         114075331.0        2416525064.0        1873486928.0        3692455944.0        1366884236.0        2968912127.0         335948734.0        4161675175.0         475798818.0        3692455944.0        1366884236.0        2968912127.0         335948734.0        4161675175.0         475798818.0
Wiener process for Thermostat # 3        1 F T T   1.6235610591851546E-01         605423974.0         862923438.0        3535527334.0        1535835762.0        2469669730.0        2705265461.0        1015873554.0        1310354410.0        2249465273.0         994084013.0        2912484720.0        3876682925.0        1015873554.0        1310354410.0        2249465273.0         994084013.0        2912484720.0        3876682925.0
Wiener process for Thermostat # 4        1 F T T   5.7271213918911079E-01         367738565.0        1368476907.0        1900082621.0        3762149829.0        1723131511.0        2281865119.0        2338701263.0        1119171942.0        2570676563.0         317077452.0        3194180850.0         618832124.0        2338701263.0        1119171942.0        2570676563.0         317077452.0        3194180850.0         618832124.0
Wiener process for Thermostat # 5        1 F T T  -6.9297543992872956E-01        1443685406.0        4186011244.0         490346212.0        3878653200.0        2819441033.0        3383254920.0        1597262096.0        3906379055.0        3312112953.0        1016013135.0        4099474108.0         275305423.0        1597262096.0        3906379055.0        3312112953.0        1016013135.0        4099474108.0         275305423.0
Wiener process for Thermostat # 6        1 F T T  -2.5155955150167914E-01         233727223.0        3343060188.0        2540851017.0         185189163.0        2480089233.0        3128595322.0          97147054.0        3131372450.0         829345164.0        3691032523.0        3006063034.0        4259826321.0          97147054.0        3131372450.0         829345164.0        3691032523.0        3006063034.0        4259826321.0
Wiener process for Thermostat # 7        1 F T T  -1.0900718888620988E+00        3083605053.0        2503860377.0        4172780963.0         128660822.0        1775318292.0        1502381702.0         796079799.0        2105258207.0         955365076.0        2923159030.0        4116632677.0        3067683584.0         796079799.0        2105258207.0         955365076.0        2923159030.0        4116632677.0        3067683584.0
Wiener process for Thermostat # 8        1 F T T   1.0288482159219583E+00        1007878996.0        2780150488.0         193376781.0        3621121299.0        3543380002.0        1850749420.0        3281794178.0        2616230133.0        1457051261.0        2762791137.0        2480527362.0        2282316169.0        3281794178.0        2616230133.0        1457051261.0        2762791137.0        2480527362.0        2282316169.0
Wiener process for Thermostat # 9        1 F T T   1.5576342840126873E+00         772383772.0        1961691523.0        4160325103.0        4024182463.0        2962658695.0        3458922243.0        3777646647.0        1837464056.0        4204654757.0         664239048.0        4190510072.0        2959195122.0        3777646647.0        1837464056.0        4204654757.0         664239048.0        4190510072.0        2959195122.0
Wiener process for Thermostat # 10       1 F T T   1.2572336540065359E+00         448517777.0         311991431.0        3212208985.0        3612920354.0        1840930144.0        1607219537.0        4215590817.0        3862461878.0        1087200967.0        1544910132.0         936383720.0        1611370123.0        4215590817.0        3862461878.0        1087200967.0        1544910132.0         936383720.0        1611370123.0
Wiener process for Thermostat # 11       1 F T T   4.5143502122596690E-01        3334954607.0        3700262756.0        1644076221.0        3818088262.0        1228799378.0        2095316031.0        1683636369.0         362165168.0         814316280.0         869382050.0         980203903.0        2062101717.0        1683636369.0         362165168.0         814316280.0         869382050.0         980203903.0        2062101717.0
Wiener process for Thermostat # 12       1 F T T  -6.1758400149511831E-02        1424940744.0        3391767929.0        1438655631.0        3955295983.0        1327780232.0        3064168361.0         272317999.0         166758548.0         310112982.0         201045826.0        1680231254.0         118290799.0         272317999.0         166758548.0         310112982.0         201045826.0        1680231254.0         118290799.0
Wiener process for Thermostat # 13       1 F T T  -3.0805706832010304E-01        1160197963.0        3770889571.0         842205422.0        1667429473.0        3011294179.0        3683601307.0        2245755202.0        1652682525.0        2865544364.0         721509566.0         209733568.0         592362218.0        2245755202.0        1652682525.0        2865544364.0         721509566.0         209733568.0         592362218.0