 # Version information for this restart file 
 # current date 2024-12-02 01:35:23.906
 # current working dir /scratch/work/courses/CHEM-GA-2671-2024fa/students/mr6966/comp-lab-class-2024-MR/Week12-IntroAIMD/Runs/Protons
 # Program compiled at                              Sat Dec 12 18:27:15 EST 2020
 # Program compiled on                                         cs001.nyu.cluster
 # Program compiled for                                                nyu-intel
 # Source code revision number                                       git:8c64c6e
 &GLOBAL
   PRINT_LEVEL  LOW
   PROJECT_NAME water_aimd_1ns_every0.5fs
   RUN_TYPE  MD
   WALLTIME 21600
 &END GLOBAL
 &MOTION
   &GEO_OPT
     OPTIMIZER  BFGS
     MAX_ITER  100
     MAX_DR     3.0000000000000001E-03
     &BFGS
     &END BFGS
   &END GEO_OPT
   &MD
     ENSEMBLE  NVT
     STEPS  2000
     TIMESTEP     4.9999999999999994E-01
     STEP_START_VAL  1997
     TIME_START_VAL     9.9849999999998249E+02
     ECONS_START_VAL    -1.1026470025575584E+03
     TEMPERATURE     3.0000000000000000E+02
     &THERMOSTAT
       TYPE  GLE
       REGION  MASSIVE
       &GLE
         NDIM  5
         A_SCALE     1.0000000000000000E+00
         A_LIST     1.8595758612559999E+02    2.7263853498399998E-01    1.1526100454610001E+01   -3.6414578262600003E+01 \
             2.3173375816020001E+02
         A_LIST    -2.7809524712060002E-01    8.5951591808710006E-05    7.2189048017650004E-01   -1.9844539343859999E-01 \
             4.2409257583420001E-01
         A_LIST    -1.4825808131210000E+01   -7.2189048017650004E-01    1.3590902121280000E+00    5.1498896280349999E+00 \
            -9.9949268450990001E+00
         A_LIST    -1.0372189126880000E+01    1.9844539343859999E-01   -5.1498896280349999E+00    2.6661910891169999E+01 \
             1.1507715495310000E+01
         A_LIST     2.1801346360420001E+02   -4.2409257583420001E-01    9.9949268450990001E+00   -1.1507715495310000E+01 \
             3.0958394565589998E+02
         &THERMOSTAT_ENERGY
               2.0993988632432678E-03
              -2.4063411384547609E-03
              -8.0989617898204625E-03
              -5.2976455300003883E-04
              -1.2048553058832632E-02
               5.8043953634728165E-03
              -1.8622748757661929E-04
               4.0592865931202322E-03
               4.8758277672118983E-03
              -3.4058916568010828E-04
               1.0185039627143715E-02
               4.3878155250178880E-04
              -5.6432296935064463E-03
              -4.9366131417473138E-03
               4.2295962701301487E-03
               4.0898794024406123E-03
               5.0740366496171184E-03
              -9.2937061055449553E-03
               3.3931826562784684E-03
              -1.7984574250869130E-03
              -3.4540696204585922E-03
               1.0925464446783122E-02
              -1.3496540561320970E-02
              -5.5267990291771344E-03
               2.4387330129653959E-03
              -6.7286446729092802E-03
               8.0701557345882816E-03
              -1.3844626210039051E-03
               5.5449231043580190E-03
              -2.9591940704667071E-05
               3.2318310611963081E-03
               9.7135560677646688E-04
              -3.2096551181027481E-03
               2.1513153803313857E-03
              -1.6483905226227367E-02
               1.8236555285722197E-02
               7.3548505015347786E-04
              -1.6513027232762706E-03
              -3.5531390539285941E-03
               1.7584648723048893E-04
               4.1831907711150284E-03
              -4.1025621438675157E-03
               3.7976804707409387E-03
               1.4851555977159951E-04
               4.5624594591870959E-03
               4.8721054134830775E-03
              -6.5466089951397907E-03
               1.3379794410813866E-02
               3.4585869424310304E-03
               9.2396609856064526E-03
               1.7467031045897729E-03
              -6.1238716678542731E-04
              -5.4747622273982506E-03
               9.2878673567705714E-03
              -8.5894917124396033E-03
               9.9324943362725333E-04
               6.0639573632765068E-05
              -1.6151125844485331E-03
               3.3959911559774082E-03
               7.4956563361509914E-03
              -3.5619787365177890E-04
               5.3261414515601356E-04
               7.7384326591387487E-03
              -3.7384200097598301E-04
              -1.6509805988002377E-03
              -8.8782862578072944E-04
              -3.2305752928164433E-03
               2.6219588824536880E-03
               1.6807838559541266E-02
               3.6366893073977918E-04
              -9.2555551110585724E-03
              -7.9607906003647325E-03
              -6.1602839098536021E-03
               9.2759193250956194E-04
              -2.7180475946008420E-03
              -1.1697257780165322E-02
               1.2957885443042213E-02
               1.9995471413038517E-02
               4.8077854074893992E-03
              -8.9247684131477222E-03
              -1.8366480916805798E-03
              -9.0996837738187199E-03
               6.1199091814297790E-03
               4.1146160489737076E-04
              -5.0443136423542213E-05
               5.2520115997980151E-03
               9.0533273467751111E-05
              -4.8690256170348944E-03
               1.0818800134235903E-03
              -4.9147688363271984E-03
               2.3814388011985815E-03
              -4.4358665950460915E-03
               5.4563607919592850E-03
              -5.8262964275629181E-03
              -1.2784047179380731E-02
               2.6420901332326443E-03
               2.9198862475587192E-03
               2.9559296286117312E-03
               5.0043146586553301E-03
              -1.3236982818349780E-03
              -2.8374836037974613E-03
              -8.4755196407409056E-03
              -1.8098006346669621E-03
              -5.6082825461670534E-03
               7.7023328673782848E-03
               1.0679083179066320E-02
               1.7787501600267015E-03
              -4.0713482656660601E-03
               6.7489866927710682E-03
              -7.2901287547630367E-03
              -1.0555545862220299E-03
               5.8773883278380144E-03
               1.1814271197370563E-03
               5.1680797205895038E-03
               1.0656738490508199E-02
              -7.6417330737026416E-03
              -9.9409883678662353E-03
              -3.8878391155803202E-03
               7.7842767806072443E-03
               5.3574431064095773E-04
               1.7731400184375552E-03
               7.3832946024301473E-04
               9.6953215739745066E-03
               9.0745101741749495E-04
              -9.0826815083393450E-03
              -1.6606906730219684E-02
               9.5298678017997768E-03
               3.9834983582672937E-03
              -2.9407961135642017E-04
               5.7185725232006485E-03
              -4.4734829310318653E-03
              -1.0245875809227890E-03
               4.1759639432516170E-03
               3.1090977552829893E-03
              -7.1446846362820705E-03
               3.7358214557585258E-03
              -7.4551463857376885E-03
              -1.0175125276315696E-02
              -3.2968279529848260E-03
               1.9675764217453751E-03
               3.8900834457274614E-04
               1.3150041641480023E-02
               9.4283493630154015E-03
              -6.7983152996100539E-03
              -4.6140153198578632E-03
              -4.9153528514406250E-03
               1.3339807735385464E-03
              -1.2877244531323846E-03
              -3.0010566136797578E-03
              -5.0731013308407680E-03
              -1.3614472960194135E-02
               6.1714994862112045E-03
               1.5786056309501032E-03
              -3.7975781285353133E-03
               1.5465561962237219E-03
              -2.5261872120318010E-03
               7.3467359541490359E-03
               2.8038289976767996E-03
              -5.6330157794428452E-03
               2.6446705838123492E-03
              -9.9335863825859849E-03
               1.7877116028870970E-03
              -2.1096901387235847E-03
              -6.1901763662879907E-04
               2.0935790057625282E-02
               2.0679187722839179E-02
               3.2389994074242954E-04
              -2.3532730580788877E-02
              -6.9103162777713559E-03
               7.4170374712327907E-04
              -5.7329654807263862E-03
              -8.3447908191195189E-04
              -6.8550124493169421E-05
              -3.0651146077914468E-03
              -5.6114669685286053E-03
              -5.8085841345607630E-04
               2.5798784843620508E-03
              -8.2035577078720563E-03
               1.2325652241747474E-02
               7.1424308873544928E-03
               2.2683139122105130E-03
              -1.0582580252101686E-05
               2.5620788067027942E-03
              -1.4416814241475694E-02
               1.2382806621922543E-02
              -1.4328850596853552E-03
              -3.4194325212484862E-03
              -9.1292820463111254E-04
              -1.0413131531966283E-02
               2.9728934108348565E-03
              -4.6702128735188900E-03
              -9.3793461066024836E-04
              -9.8616802030993822E-03
               9.9445734440463465E-03
               1.0361873169717642E-02
              -7.3341946143130419E-03
              -1.6336936219554731E-03
               2.3826541727458198E-04
              -4.2518055629471871E-03
               5.1455929193806242E-04
              -2.2122316557395194E-03
              -5.2072755777026877E-03
               1.2892618244402291E-03
              -1.1779821347721461E-03
              -2.3245337995860594E-03
               3.0043529239112865E-03
               1.2816938351079721E-03
               1.5324628853192314E-03
               5.1117569666184253E-03
               2.5845086062860614E-03
               6.5010501360417642E-03
              -8.4525336187456432E-03
               1.0144443090326293E-02
               3.7376337022999068E-03
              -9.6337925304599030E-04
               2.1670958081975926E-03
              -1.0289009246113085E-02
              -4.3063297185693015E-03
              -6.8922031641027921E-05
              -1.5641525601978597E-03
              -2.0643460035551337E-04
              -9.0411604282774685E-03
              -4.9875363776140868E-04
               1.9801646461961287E-03
               3.3767272840384407E-03
              -1.9435802640529418E-05
              -1.7154511247799748E-03
               4.9321849365416247E-03
              -9.3828788902186860E-03
              -4.9516508554665294E-03
              -6.8751556978287167E-03
               1.3400071773862563E-03
               1.0912399685854890E-02
               1.2457294972946314E-04
              -1.2668351221853667E-03
              -4.3883963532063237E-04
              -2.0406119298644848E-03
              -9.0796341387321382E-04
               3.9879655198271947E-03
               9.6564586420872320E-03
               3.7037469666368708E-03
              -7.8151457238148751E-03
              -1.8900674539711608E-03
              -4.6090254517513699E-03
              -1.5182661093204174E-03
               1.5576529190172550E-03
               3.9794072171810326E-03
              -2.1703131064822866E-03
               3.0830844494552467E-03
              -1.3765262460475915E-03
              -7.1862439309682427E-03
              -2.0717865259078781E-05
              -4.5066417952147990E-03
              -5.7565346988268078E-03
               4.3313138772273019E-03
               2.6711430989281764E-03
               1.6459622125623262E-02
              -5.5540503559402777E-03
               1.2452053604843564E-02
              -2.8373274238019105E-02
               2.5946823344842749E-02
               2.3809504278253938E-03
               2.8451646966124915E-03
               9.8919169253674118E-03
               5.6998193560631278E-03
              -1.3454533227674167E-02
               4.4258484237426378E-03
              -8.3313433169012237E-03
               3.0987001634790973E-03
               1.5710786937995231E-02
               1.1987821840207386E-03
              -8.2362223522640058E-03
               1.9035862646998808E-03
               1.2105269827516064E-02
              -1.9647852403502767E-03
              -2.1555224083057094E-04
              -2.0974139725461281E-02
               1.5307593178288222E-02
              -7.6752201480972419E-03
               4.3582787560710870E-03
              -4.6401907051521994E-03
               5.8825908093519536E-03
              -6.3928803520995146E-03
               8.9174996190513600E-04
               3.9654580154136051E-03
               4.0239362651857506E-03
               3.9020823836928963E-03
              -7.0140272264127158E-03
              -2.4541228167289718E-03
               6.0818607522284060E-03
              -4.7210573093023614E-03
              -2.9221181714932970E-03
               3.1039356424610623E-05
              -2.6534762797614068E-03
              -5.4807148175862247E-03
               1.0317800767321106E-02
              -8.3144679213803131E-03
              -2.7007184791849430E-03
              -8.3935151286203304E-03
              -8.5792525372814874E-03
              -3.3655040713756672E-03
               7.5740470744113803E-03
               1.0627072721892481E-02
              -1.9138842912935262E-03
               1.7743102309153914E-02
              -1.3118101868996241E-02
              -8.7941085988076512E-03
               6.4630437719241868E-04
               7.6455215423984185E-03
               1.4946731376852023E-02
              -4.1900007146724524E-03
              -1.9877614606551203E-02
              -8.1440356887248419E-03
               1.9845655765599719E-02
              -3.6139240436715066E-03
               4.1385225214580247E-03
               6.5107621900511474E-03
               2.0406415094847414E-03
              -3.2303449582605668E-04
              -2.8095155911655846E-03
               8.7399207105729425E-03
              -1.8381643079320484E-02
              -7.0644046480945362E-03
               1.0305804120849584E-02
              -2.8092179433941108E-03
               1.0157161176508377E-02
              -1.4748182041801950E-03
               2.5633574276841438E-04
              -3.1833754336787140E-03
              -4.9842271021550266E-03
               6.5047939407411907E-04
              -1.3401852748543618E-02
               9.8719126857609932E-03
              -4.7814798663767142E-03
               1.9924319718272287E-03
              -6.4681395792430898E-04
               8.0900574041963564E-03
               2.3459522937902500E-03
              -1.3183582692261732E-02
               8.8394939108109322E-03
              -2.3905722853688242E-03
               7.2652900996640147E-03
               3.4837444728055777E-03
              -5.3866986948924184E-03
              -5.3628177262871383E-04
              -2.0995025175507462E-03
               7.1746641646255717E-03
               5.0487491680724199E-04
              -5.6057440389115235E-03
              -1.3857428812480768E-03
               5.0442346242324156E-03
               1.0385185082973623E-02
              -8.1744411835227328E-03
              -6.3112295941370250E-03
              -9.4407209268635457E-03
               9.8700031850734397E-03
              -2.4577130361074005E-04
              -1.3753758820337730E-02
              -8.7327668484509530E-03
               1.3966138741551013E-02
              -4.1476778066595072E-03
              -1.9730081624565392E-03
              -1.1364490524094249E-02
              -3.6315227334737543E-03
              -6.0327961260334302E-03
               1.6385816599279183E-02
               6.2606661133284315E-03
              -5.2302304319382913E-03
              -5.3913318584245546E-03
              -7.4118461144718397E-03
               5.5739071914963738E-03
               1.3122385770782683E-03
               2.7681755317985396E-03
               6.8605831629328206E-04
              -4.1316190262524078E-03
              -1.0391523279878446E-03
               1.8933619833808293E-03
              -7.8879269447715439E-03
               1.1840510942597092E-05
               9.7704813101118725E-04
              -1.3043714556023388E-03
               1.1383300840951568E-02
               1.6114948398620398E-02
              -1.6018038105298678E-02
              -2.0217901217189676E-02
               9.1158070552524156E-03
              -2.8942162294523673E-04
               1.0747578374551573E-03
               4.3300772490382109E-03
              -1.2479769463967967E-03
               1.2297326532042887E-04
               1.2276230508863088E-03
               6.2932250887406515E-03
              -3.6754688218114282E-03
              -3.2004534803060842E-03
               2.9725214295903408E-03
              -1.0354751438996602E-02
               2.1504653784438273E-03
               9.7679206002667415E-04
              -2.9643426777068788E-02
               1.1653296842466718E-02
               9.4033288366330309E-03
              -1.1420386958844867E-02
               3.9546895743904605E-03
               1.8283544784429569E-02
              -4.5897742713970442E-03
               2.6271707045265038E-03
               5.7839921139471086E-03
              -1.2448675525363322E-02
               1.0444577033605915E-02
               2.4412728322391702E-04
               1.2459114498156766E-02
              -9.5084877238874412E-04
               6.4717445991284784E-03
              -4.5048980875396212E-05
               5.5837316799626476E-03
              -1.9063391064618390E-04
              -1.4924685348174578E-02
               2.9812803202879838E-03
              -6.0014681635508537E-03
               3.4910726881204980E-04
              -1.1092695752814895E-02
               1.2367008146522303E-03
               1.2791782373593687E-02
               2.6028555578978547E-02
               1.0235680918922690E-02
               9.6252588004901666E-03
              -4.6726355191853517E-04
               9.6731695740016974E-03
               3.1209282738022967E-02
               5.4124165737746630E-03
              -4.5961588746665236E-03
               4.9529377022109800E-02
               2.6347165367149303E-02
               2.2441433907542718E-02
              -8.6053354479136189E-04
               2.1782776384982440E-03
              -2.3670934014068199E-03
               1.4167933856484459E-03
              -3.7987674876187793E-03
              -3.9191827188402297E-03
              -2.4679540076259741E-03
              -6.8931041615225910E-03
               1.2587208709196860E-02
               3.8712912986670154E-03
               8.3850668497930624E-03
              -5.3280428758374892E-04
               7.6583797826748562E-03
               5.5528048313265039E-03
              -4.3771380573709509E-03
              -1.7273226288366348E-03
              -7.8244018807482763E-03
               7.1766043791681930E-03
               1.5611938506668460E-03
              -2.1472990033638431E-04
              -8.2689480471156290E-03
              -1.6450379500725382E-03
               3.5075530344939130E-03
              -9.7863569024474271E-03
              -7.5755834284844193E-03
               9.8158764810274170E-03
               9.9685850712587613E-03
              -1.9941259833757387E-03
              -1.9934340678800415E-04
               3.9740634661004359E-03
              -3.0641297430809692E-03
              -4.2551084084081958E-03
              -1.0430519722795054E-04
               1.6266288411767752E-02
              -9.4804043232914678E-03
              -2.3781711312001364E-03
              -4.7919521223752622E-03
               6.2123663325825531E-03
              -3.7129535258808711E-03
              -3.7222642538507563E-03
               1.4160686510402228E-02
              -5.1656240832665301E-04
               1.2052307694852975E-02
               3.9914046907354138E-06
               1.9062347293916768E-03
               2.3890741351659693E-03
              -5.3234767843384351E-03
               7.7105145249949721E-04
               1.7999816549036617E-03
              -1.1765500513204403E-05
               3.3231761159673500E-03
               7.1857801507590581E-03
              -2.8828487600996364E-03
               3.2746588951424898E-03
              -5.3596774759311081E-03
               5.2796788672814432E-03
               5.6734517520782186E-03
              -4.1682312867689607E-03
              -6.4913954058101932E-03
              -3.1099155503561365E-04
              -1.9940269569537969E-03
               7.4358073327552010E-03
               1.0591147726286025E-02
              -5.3790532498595024E-04
               6.5894173511115836E-03
               2.5646064865338372E-03
               6.8553585811101806E-03
              -1.7400184339201250E-02
               1.5289436810925915E-02
               3.6695061331365043E-03
              -1.7391568733511848E-02
              -4.5478958810602204E-04
               2.0645944035451945E-03
               5.5431340836976963E-03
              -2.9392737315582854E-03
               1.7776287595749813E-03
               7.4769456780367149E-03
              -1.1164250534445501E-02
              -7.0363677660870688E-03
               1.2048571809849754E-02
              -1.5224401625535145E-02
              -6.2145045116440336E-03
               6.7912597833779979E-03
               1.7266272357245353E-03
               9.9325156634984171E-03
              -8.5464026131853010E-03
              -5.6391815806248365E-03
              -1.1869588314224460E-03
               7.1124405792192908E-03
               1.7111669654582210E-03
               7.1775058861489145E-03
               2.4748014182952392E-03
              -6.8524959086016931E-03
               8.1176011775057084E-03
               6.4077708210247422E-03
              -4.6904500556935232E-03
               2.5121241584425306E-02
              -2.3448103633712009E-03
              -3.7795474912661366E-03
              -7.1267609424457935E-04
               6.0849742431281521E-03
               5.3588988324172028E-03
               1.2197782636217945E-03
               5.8256397885824620E-03
               1.0226059551488238E-02
               2.1673344096465323E-03
               4.4699068872872481E-03
              -2.7804303172819312E-03
               6.5884538550730273E-03
               1.0445293011805521E-02
              -2.2165016174776884E-03
               3.4434088422523623E-03
               4.6835110567190318E-03
               1.2360611636249522E-03
               8.7839040517751574E-03
              -4.2549231354537245E-03
              -4.1504247377188320E-03
              -3.2816520728352243E-03
              -5.0666087346860388E-03
               1.5075844356211051E-03
               1.8640428235226041E-03
               3.5710011696964430E-03
               3.1097053221980173E-03
               1.5511696176026445E-02
              -2.7772037938453274E-03
               9.4041253607512615E-03
              -7.2079915187342274E-04
               2.6309407156086054E-03
               1.8789446097190112E-03
              -1.0667113864017121E-02
               2.8200445816464388E-03
              -4.5245519589747346E-03
               2.0859154226164321E-03
               2.5903317216351431E-03
              -9.6330048405031334E-04
              -3.2942314414625465E-03
              -3.1400384850515028E-03
              -2.4930303152777252E-03
              -1.7380254276501399E-02
               5.3233054458139400E-03
               1.2759726665956249E-02
               1.2018486300848511E-02
              -5.2530481465121442E-03
               3.1520953249895602E-03
         &END THERMOSTAT_ENERGY
         &RNG_INIT
Wiener process for Thermostat # 1        1 F T T   3.7280401166127353E-01        2396824340.0        1285798124.0        1970812289.0        4262378425.0        2500496477.0        3105761546.0             12345.0             12345.0             12345.0             12345.0             12345.0             12345.0             12345.0             12345.0             12345.0             12345.0             12345.0             12345.0
Wiener process for Thermostat # 2        1 F T T  -2.8031459711754392E-01        1517340215.0         764337745.0        1777988352.0        1272471177.0        3093987526.0        2495380513.0        3692455944.0        1366884236.0        2968912127.0         335948734.0        4161675175.0         475798818.0        3692455944.0        1366884236.0        2968912127.0         335948734.0        4161675175.0         475798818.0
Wiener process for Thermostat # 3        1 F T T   7.0414863813957229E-01        1874984675.0        3540139467.0        3102430019.0        1608426380.0         643336117.0        1230365417.0        1015873554.0        1310354410.0        2249465273.0         994084013.0        2912484720.0        3876682925.0        1015873554.0        1310354410.0        2249465273.0         994084013.0        2912484720.0        3876682925.0
Wiener process for Thermostat # 4        1 F T T   2.2606224243119818E-01        3416187057.0        1637601412.0         393440280.0        2948182120.0        3407482107.0        2343296956.0        2338701263.0        1119171942.0        2570676563.0         317077452.0        3194180850.0         618832124.0        2338701263.0        1119171942.0        2570676563.0         317077452.0        3194180850.0         618832124.0
Wiener process for Thermostat # 5        1 F T T  -1.0267294306732384E+00         315072143.0        4137263975.0        4196656129.0        1282237791.0        3639735469.0        1937530485.0        1597262096.0        3906379055.0        3312112953.0        1016013135.0        4099474108.0         275305423.0        1597262096.0        3906379055.0        3312112953.0        1016013135.0        4099474108.0         275305423.0
Wiener process for Thermostat # 6        1 F T T   9.2624835653208748E-01        3222219212.0        3105331301.0        2094058484.0        2511776071.0        3719186732.0        3505559269.0          97147054.0        3131372450.0         829345164.0        3691032523.0        3006063034.0        4259826321.0          97147054.0        3131372450.0         829345164.0        3691032523.0        3006063034.0        4259826321.0
Wiener process for Thermostat # 7        1 F T T  -4.6721006089689310E-01        2921304001.0        3534845789.0         764942181.0        2980414860.0        2807768180.0         274774080.0         796079799.0        2105258207.0         955365076.0        2923159030.0        4116632677.0        3067683584.0         796079799.0        2105258207.0         955365076.0        2923159030.0        4116632677.0        3067683584.0
Wiener process for Thermostat # 8        1 F T T   4.8809173354813140E-01        3327178806.0        3682317356.0        2663069382.0         319044460.0        3975670735.0         562702070.0        3281794178.0        2616230133.0        1457051261.0        2762791137.0        2480527362.0        2282316169.0        3281794178.0        2616230133.0        1457051261.0        2762791137.0        2480527362.0        2282316169.0
Wiener process for Thermostat # 9        1 F T T  -8.1805399140306756E-01         433221438.0         349071730.0        2033385903.0        2639944804.0        3988392127.0        3801627598.0        3777646647.0        1837464056.0        4204654757.0         664239048.0        4190510072.0        2959195122.0        3777646647.0        1837464056.0        4204654757.0         664239048.0        4190510072.0        2959195122.0
Wiener process for Thermostat # 10       1 F T T  -2.7062828385550008E-01        2290601073.0        1666814614.0        3289919364.0        2930088785.0        1500929831.0        1860303943.0        4215590817.0        3862461878.0        1087200967.0        1544910132.0         936383720.0        1611370123.0        4215590817.0        3862461878.0        1087200967.0        1544910132.0         936383720.0        1611370123.0
Wiener process for Thermostat # 11       1 F T T   6.8652417552969780E-01        2151060734.0         580174056.0        1748210725.0         399674445.0        1879492130.0        2741776977.0        1683636369.0         362165168.0         814316280.0         869382050.0         980203903.0        2062101717.0        1683636369.0         362165168.0         814316280.0         869382050.0         980203903.0        2062101717.0
Wiener process for Thermostat # 12       1 F T T   1.2985463821691814E+00        3478492904.0        1830493925.0          17364685.0        2058676739.0        2676153401.0        4087350495.0         272317999.0         166758548.0         310112982.0         201045826.0        1680231254.0         118290799.0         272317999.0         166758548.0         310112982.0         201045826.0        1680231254.0         118290799.0
Wiener process for Thermostat # 13       1 F T T   2.0061703114922356E+00        2097018817.0        1300727704.0         367347443.0         582130443.0        2824054692.0        3111690587.0        2245755202.0        1652682525.0        2865544364.0         721509566.0         209733568.0         592362218.0        2245755202.0        1652682525.0        2865544364.0         721509566.0         209733568.0         592362218.0