 # Version information for this restart file 
 # current date 2024-12-02 01:35:31.592
 # current working dir /scratch/work/courses/CHEM-GA-2671-2024fa/students/mr6966/comp-lab-class-2024-MR/Week12-IntroAIMD/Runs/Protons
 # Program compiled at                              Sat Dec 12 18:27:15 EST 2020
 # Program compiled on                                         cs001.nyu.cluster
 # Program compiled for                                                nyu-intel
 # Source code revision number                                       git:8c64c6e
 &GLOBAL
   PRINT_LEVEL  LOW
   PROJECT_NAME water_aimd_1ns_every0.5fs
   RUN_TYPE  MD
   WALLTIME 21600
 &END GLOBAL
 &MOTION
   &GEO_OPT
     OPTIMIZER  BFGS
     MAX_ITER  100
     MAX_DR     3.0000000000000001E-03
     &BFGS
     &END BFGS
   &END GEO_OPT
   &MD
     ENSEMBLE  NVT
     STEPS  2000
     TIMESTEP     4.9999999999999994E-01
     STEP_START_VAL  1998
     TIME_START_VAL     9.9899999999998238E+02
     ECONS_START_VAL    -1.1026470025575584E+03
     TEMPERATURE     3.0000000000000000E+02
     &THERMOSTAT
       TYPE  GLE
       REGION  MASSIVE
       &GLE
         NDIM  5
         A_SCALE     1.0000000000000000E+00
         A_LIST     1.8595758612559999E+02    2.7263853498399998E-01    1.1526100454610001E+01   -3.6414578262600003E+01 \
             2.3173375816020001E+02
         A_LIST    -2.7809524712060002E-01    8.5951591808710006E-05    7.2189048017650004E-01   -1.9844539343859999E-01 \
             4.2409257583420001E-01
         A_LIST    -1.4825808131210000E+01   -7.2189048017650004E-01    1.3590902121280000E+00    5.1498896280349999E+00 \
            -9.9949268450990001E+00
         A_LIST    -1.0372189126880000E+01    1.9844539343859999E-01   -5.1498896280349999E+00    2.6661910891169999E+01 \
             1.1507715495310000E+01
         A_LIST     2.1801346360420001E+02   -4.2409257583420001E-01    9.9949268450990001E+00   -1.1507715495310000E+01 \
             3.0958394565589998E+02
         &THERMOSTAT_ENERGY
               2.1473183245015104E-03
              -2.0817821716898983E-03
              -7.7527454824472698E-03
              -2.3553062673913874E-04
              -1.2156535038431586E-02
               5.7825791996862488E-03
               2.0245257950509104E-05
               4.2336804909674257E-03
               4.0871724337344329E-03
              -3.0281214507147010E-04
               1.0270886662912452E-02
               6.9537895275139446E-04
              -6.2733169082935109E-03
              -5.4970003579125105E-03
               4.2405474835534151E-03
               4.4321493300001095E-03
               4.5659478564144705E-03
              -8.1054506728083561E-03
               3.3501936401333040E-03
              -1.9315219936725143E-03
              -3.3380989611800000E-03
               1.1066812504627960E-02
              -1.4481177942929378E-02
              -5.5094221110146861E-03
               2.4390477020364192E-03
              -6.5964741300474023E-03
               8.3273629268703544E-03
              -1.4382415649864628E-03
               5.0660921619367994E-03
               2.7533268889124856E-05
               3.3111560962995321E-03
               7.2940094513340931E-04
              -3.1290476668802236E-03
               2.0874202671153793E-03
              -1.6435212263674819E-02
               1.8180841448148129E-02
               6.0436831825419490E-04
              -1.6051605886134468E-03
              -3.6282494007453393E-03
               7.7952830417876243E-05
               4.3025358038617711E-03
              -4.1321456295041869E-03
               3.6752705783297734E-03
              -1.3295866720270988E-04
               4.5683120632900162E-03
               4.5608739806149417E-03
              -6.9505909165906536E-03
               1.2722421050269109E-02
               3.4725876070366324E-03
               8.8422662293697486E-03
               1.6140979364035603E-03
              -6.6196003874958108E-04
              -5.6654061171138121E-03
               9.3061040245609322E-03
              -8.5909646766657976E-03
               5.3183529621740177E-04
              -2.3687389501199051E-04
              -1.8040651312260492E-03
               4.0999610131831864E-03
               7.5162239240664031E-03
              -6.2461649711662449E-04
               4.2202540814116808E-04
               8.0754738353442743E-03
              -4.4696424568736514E-04
              -1.5326053331135786E-03
              -8.2638073123277001E-04
              -3.2867582102703266E-03
               3.0942031048816999E-03
               1.6343138708880378E-02
               1.0275474608462134E-04
              -9.0604608264302430E-03
              -7.9020830460433088E-03
              -6.0245131563554507E-03
               1.1847078790911110E-03
              -2.8925883181125140E-03
              -1.1750196424855445E-02
               1.2849497472682830E-02
               2.0125066982200387E-02
               4.9060627134453307E-03
              -8.8900322610248987E-03
              -2.0447399815743169E-03
              -9.3996723001911961E-03
               6.1859327405530519E-03
               4.2662727498860823E-04
              -2.9687626305472669E-05
               5.0531301261706515E-03
               2.0662885567956761E-04
              -4.5554148088851228E-03
               7.5586373207385158E-04
              -4.8104810215258247E-03
               2.3671277562811515E-03
              -4.4908675313935177E-03
               5.4666750688564551E-03
              -5.9817834343433912E-03
              -1.2769520003233580E-02
               2.9190912152632668E-03
               4.3856013434352111E-03
               2.9738499260604867E-03
               4.4865994139107745E-03
              -1.3484407261164450E-03
              -2.7706245685703242E-03
              -8.7411395392709822E-03
              -2.2948738542053000E-03
              -5.0293925128930498E-03
               7.8904667410384342E-03
               1.0763865904718582E-02
               1.7830129146971076E-03
              -4.5278735823866198E-03
               6.7468914484548814E-03
              -7.2304008820877437E-03
              -9.0016683895948260E-04
               5.0654806617438739E-03
               1.1693489500660143E-03
               5.0402136807541978E-03
               1.0574467210210209E-02
              -7.6247517351812726E-03
              -9.9246753778354686E-03
              -3.7440168201727064E-03
               7.7203250023302143E-03
              -4.9252503562107332E-05
               2.3913009401983309E-03
               4.6231666456333589E-04
               9.6964114012541153E-03
               9.3668071190816801E-04
              -9.0986261004674038E-03
              -1.6755588332730990E-02
               9.5004387876988904E-03
               4.0143394922952389E-03
              -1.2715039836057145E-05
               5.7203663964382990E-03
              -4.5893311880514610E-03
              -1.3814918658870260E-03
               4.1892194507086623E-03
               3.9383079246534452E-03
              -7.3119911829048149E-03
               3.6901210148186487E-03
              -6.2393323666620690E-03
              -9.3817077271824301E-03
              -3.4347099946412628E-03
               1.8683981470382811E-03
               2.3450428356865661E-04
               1.3861772332180153E-02
               8.6473043546174185E-03
              -6.7238390000960210E-03
              -4.7924187369582415E-03
              -4.9546936113609961E-03
               1.9586591916636170E-03
              -1.2674040443345514E-03
              -2.9091901280985538E-03
              -4.9207081782798191E-03
              -1.4271438563481354E-02
               6.0391047778313289E-03
               2.1319190765316082E-03
              -3.9435071259766646E-03
               1.4640217014074979E-03
              -2.4731940665489085E-03
               7.5238831194566844E-03
               2.9816939989067348E-03
              -5.6016939327126420E-03
               2.4122587770586878E-03
              -9.9156680504876461E-03
               1.2918909652647709E-03
              -2.2233387452397033E-03
              -3.1881625642757625E-04
               2.0160392963657719E-02
               2.1275939402049370E-02
               4.3666159132032726E-04
              -2.3573511382170835E-02
              -6.9597152165798591E-03
               6.9720088015342728E-04
              -5.4539902262064274E-03
              -8.2987367946412403E-04
              -1.3116461489089728E-04
              -3.0534005372219362E-03
              -5.6839144301661501E-03
              -4.7200175275505024E-04
               2.5859037221406243E-03
              -8.4996914206068620E-03
               1.2186682379681530E-02
               6.7440875451711940E-03
               2.4442297680870441E-03
              -2.4309042817472791E-04
               2.7096151432360592E-03
              -1.3775708995356977E-02
               1.2568258505125418E-02
              -5.8851414224226142E-04
              -3.6416901760438184E-03
              -1.2269247617319235E-03
              -1.0416856500759191E-02
               2.9324654826686490E-03
              -4.1375106881323251E-03
              -7.6291698871833939E-04
              -9.2012790992490306E-03
               9.9439422520867932E-03
               1.0369480420599047E-02
              -7.0080940299814126E-03
              -1.6648076910005841E-03
              -1.4544456762780877E-04
              -4.1038661315768209E-03
               6.3260700996182768E-04
              -2.3174373430211140E-03
              -5.3664442290545667E-03
               1.1375460503517706E-03
              -9.1387821034484215E-04
              -1.4146617958267279E-03
               2.2910131328473652E-03
               1.6688590583803123E-03
               1.2542887682860382E-03
               4.7196922185398990E-03
               2.6144838209273807E-03
               6.5784873668346486E-03
              -8.4464203282758835E-03
               1.0091690882182314E-02
               3.8877716166434832E-03
              -9.8365941976644665E-04
               1.9974347600492780E-03
              -1.0201889020996981E-02
              -3.9902040979792582E-03
               2.1223359580462920E-04
              -1.5543652013026812E-03
              -1.0326893890776397E-03
              -9.4020897330863960E-03
              -1.5668543171635683E-04
               2.1264367984437315E-03
               3.7502508529861289E-03
               2.7574465353514631E-05
              -1.6524474337873409E-03
               5.2045753765770928E-03
              -8.9617240035302515E-03
              -5.1488933851968829E-03
              -6.9394754766266813E-03
               1.3726379592407158E-03
               1.1378529447031291E-02
               2.3222594831014777E-04
              -9.9385635121719247E-04
              -6.4892835305050344E-04
              -1.7853360549028811E-03
              -7.3436410698066905E-04
               4.0194376811584220E-03
               9.6080890495388854E-03
               4.1253839686509605E-03
              -7.7879929021614511E-03
              -1.9658697126971277E-03
              -4.3529276970904630E-03
              -4.8375057909461625E-04
               1.9354001777075950E-03
               3.3684330567283968E-03
              -1.8365859091509897E-03
               3.0183647455617026E-03
              -1.2472187126393553E-03
              -7.0638108640392310E-03
              -3.4540596208508132E-04
              -5.3314018938810078E-03
              -6.2475640192251446E-03
               4.6625791019459508E-03
               2.8469388029650914E-03
               1.6440184555931433E-02
              -5.3594216244239531E-03
               1.2023161146685639E-02
              -2.8566683988842455E-02
               2.6083543784935260E-02
               2.1779666636297930E-03
               2.9391325240228135E-03
               9.9837225546443257E-03
               5.9945011143581559E-03
              -1.2515677659470772E-02
               4.2684016123977998E-03
              -8.8573883806302503E-03
               2.9264943910766506E-03
               1.5700916495293267E-02
               8.4103154740034413E-04
              -8.0728009148677855E-03
               1.5897089454760985E-03
               1.2297416293502424E-02
              -1.5908372455976174E-03
              -3.4215748251491235E-04
              -2.0975921284673717E-02
               1.5005024994652999E-02
              -8.2034450099196052E-03
               4.5037853218259788E-03
              -4.3748176213742581E-03
               6.0091655144507358E-03
              -5.6419688064159486E-03
               7.3013928548160156E-04
               3.8125526359374714E-03
               4.0526476454297551E-03
               3.6561620673526123E-03
              -6.9858840423428275E-03
              -2.4872407019264006E-03
               6.0737523716864420E-03
              -4.1181141169706276E-03
              -2.7293571272329910E-03
               1.4812667490105117E-04
              -2.6769387061594419E-03
              -5.4644063907747509E-03
               1.0101917048686761E-02
              -9.0056001854616954E-03
              -2.7761080126497864E-03
              -7.9962024422667033E-03
              -8.5365426825649224E-03
              -3.4636273423748185E-03
               7.3688305067287751E-03
               1.0930526877354118E-02
              -1.8702124335357906E-03
               1.7803650989661308E-02
              -1.2958530778532673E-02
              -8.0816134618350004E-03
               1.3784532121478897E-04
               7.6494331655632842E-03
               1.4988539162500650E-02
              -4.1632748862025556E-03
              -1.9688302133279063E-02
              -8.0718293373184535E-03
               1.9954301848662058E-02
              -3.6490346317535833E-03
               4.4650234580914695E-03
               7.0281782237423367E-03
               1.7571730201619371E-03
              -6.7417587356374429E-05
              -2.8284702146723247E-03
               8.9535654285663943E-03
              -1.8862760302285619E-02
              -7.1129424498466692E-03
               1.0099257819712383E-02
              -4.0547342994180354E-03
               9.2299614759771571E-03
              -1.5740514553036775E-03
               8.8688121609133001E-04
              -3.2193358167858146E-03
              -5.0643021399582643E-03
               2.0584526119203301E-03
              -1.3758811917146931E-02
               9.7743106349170491E-03
              -5.4283165321520653E-03
               2.0094452187868440E-03
              -6.4767057125904987E-04
               8.1799221783683523E-03
               1.8623506070935708E-03
              -1.3150395275022601E-02
               8.7134124417504871E-03
              -2.2328108430098776E-03
               7.1106889242534572E-03
               3.4883405405397492E-03
              -5.3822969310403897E-03
              -7.1794481096789384E-04
              -2.2620640908975571E-03
               6.9890046824246967E-03
               4.9887679311451209E-04
              -5.5038098997885615E-03
              -1.7744183287640642E-03
               5.0333220530073969E-03
               1.0308686606609146E-02
              -8.3475754699678436E-03
              -6.3131064124200874E-03
              -9.5588237890672622E-03
               9.4824955088698825E-03
              -2.9090012703668789E-04
              -1.3803090575701204E-02
              -8.5532873576767317E-03
               1.3888945019395100E-02
              -4.1751020136732474E-03
              -1.3619459384944139E-03
              -1.1498263368192744E-02
              -3.4194371723609987E-03
              -6.1119533901351324E-03
               1.6312138785891162E-02
               6.5293548401424836E-03
              -5.3075042152160813E-03
              -5.5793217135824569E-03
              -7.4020751553382684E-03
               5.8169861939245376E-03
               1.1217447215455727E-03
               2.7705976032782989E-03
               9.9597848685937813E-05
              -4.7874259600481691E-03
              -1.0885804733538212E-03
               1.7892650850913256E-03
              -7.8529074664161029E-03
               3.6908320186591936E-04
               1.0679800151419138E-03
              -5.6072122014057843E-04
               1.0956925908100004E-02
               1.5135709140020603E-02
              -1.6105706090443581E-02
              -2.1052487596167516E-02
               9.2957922367907213E-03
              -3.2314808370523837E-04
               1.0703333939982190E-03
               4.3393955401920077E-03
              -1.2400218591154747E-03
              -2.8474869103402799E-04
               1.3061843010767984E-03
               6.2292187849745479E-03
              -3.6859608040759428E-03
              -3.2461683730793931E-03
               3.0399631615595072E-03
              -9.9435219172573606E-03
               2.4040372753485976E-03
               1.7150763708703657E-03
              -2.9474261725223869E-02
               1.1598217541087258E-02
               9.6031755028997516E-03
              -1.1678537821653075E-02
               3.9696530506480631E-03
               1.8174208707699709E-02
              -4.6586525809971446E-03
               2.2811242890116283E-03
               4.8431014179574853E-03
              -1.2360982094540401E-02
               1.0608356112253641E-02
               2.5161971154962566E-04
               1.2361484065527452E-02
              -1.8429626823756877E-03
               7.0959527701499516E-03
               2.0158217007744297E-04
               5.6141198531097615E-03
              -6.0283479301563342E-04
              -1.4440958589519265E-02
               3.3545872253371543E-03
              -5.9837491429742939E-03
               2.8188425958349921E-04
              -1.1305660493810656E-02
               1.4043987033456105E-03
               1.2746224809412151E-02
               2.5948378534338290E-02
               1.0143109904955280E-02
               9.6381803726391154E-03
              -5.6726026178071688E-04
               9.5623375623197938E-03
               3.1385430936655051E-02
               5.9914475205400724E-03
              -4.5060369337826299E-03
               4.8804583009216716E-02
               2.6384239729653310E-02
               2.2346293376064166E-02
               1.5613062936278919E-03
               2.6824268083006308E-03
              -1.5677498542694124E-03
               1.6292742837338444E-03
              -3.6663087479391751E-03
              -4.0973916411214733E-03
              -2.8311300329709526E-03
              -6.8818110396592349E-03
               1.1800269658455730E-02
               4.2152142418288140E-03
               8.7786375859342427E-03
              -8.8976408214937490E-06
               7.7690301744603989E-03
               5.1377037807160946E-03
              -4.3587436545761034E-03
              -1.9862455632125449E-03
              -7.8476297332876598E-03
               7.0895365106178870E-03
               2.3203282788726966E-03
              -1.8586649202894919E-04
              -8.2567446019620131E-03
              -1.6467939389955676E-03
               3.5948826122903753E-03
              -9.6539326514906692E-03
              -7.2541239556758513E-03
               1.0235279797584420E-02
               9.3079170403271606E-03
              -1.7813192522965786E-03
              -3.2735075644924852E-04
               3.6090250048066018E-03
              -2.9412075826170591E-03
              -4.3616636983481831E-03
              -5.7933282811794825E-05
               1.5951241561094859E-02
              -9.4771916409104977E-03
              -1.9193563439666786E-03
              -4.6476546210608878E-03
               5.2704887469617514E-03
              -3.6016497750502290E-03
              -3.6131020228526585E-03
               1.4833354074009642E-02
              -8.1018806942573197E-04
               1.2369525241747791E-02
               4.2498385502191187E-04
               2.0031247462748564E-03
               2.4386951011689736E-03
              -4.1991122991936981E-03
               2.8927292691671724E-05
               1.5120418553589594E-03
              -6.3180073220995788E-04
               3.3659764972195391E-03
               7.1195644963254817E-03
              -2.5234072755580535E-03
               3.3285650647117693E-03
              -5.4211014716266269E-03
               5.2356389140320175E-03
               5.0680690278449821E-03
              -4.5940057646413702E-03
              -6.3474151222439271E-03
              -7.8269709996587342E-04
              -1.9878759720351326E-03
               8.1143432344112365E-03
               1.0557754149036551E-02
              -4.7232066460602205E-04
               6.4696816122000057E-03
               3.6678191722483672E-03
               6.8730721703432760E-03
              -1.7577569085129148E-02
               1.6032775455764991E-02
               3.5851469822915549E-03
              -1.7272756784420477E-02
              -4.5277559021733420E-04
               2.0541315482901761E-03
               6.0801714576237849E-03
              -2.7561886991748774E-03
               1.5196039894071788E-03
               7.9626191360252976E-03
              -1.1173738774659377E-02
              -6.9937861225169620E-03
               1.1973071205409658E-02
              -1.5290970865209039E-02
              -6.2515369800677381E-03
               6.7730006373390049E-03
               1.7187119265955680E-03
               1.0119725430018146E-02
              -8.7333400486824479E-03
              -6.1251148808003555E-03
              -1.2791148894613893E-03
               7.0503383221614561E-03
               4.6386183353494060E-04
               7.0235653159912486E-03
               2.6646661472712178E-03
              -7.1059503319732603E-03
               9.0192190606159066E-03
               6.2111193908691107E-03
              -5.0908369875927399E-03
               2.5436490565990785E-02
              -2.0815599172291340E-03
              -3.2256334534659552E-03
              -2.6170475078453971E-04
               5.9773237076236928E-03
               5.2606947910307979E-03
               1.2486775559625283E-03
               5.7860679136208862E-03
               9.9094007982562481E-03
               1.9789288894906053E-03
               4.5796163388867588E-03
              -2.7812313948504855E-03
               6.6191455266878382E-03
               1.0490095403435901E-02
              -2.5646864709798810E-03
               3.2305024235161077E-03
               5.0312338306155013E-03
               1.7570997345618573E-03
               8.7788333998885214E-03
              -4.8182812522932642E-03
              -3.8926725378477353E-03
              -3.3726299241234443E-03
              -4.9655960539043038E-03
               1.5095943263721526E-03
               1.7621867195634388E-03
               3.5696251122784854E-03
               3.0660877774960397E-03
               1.5758097290650242E-02
              -2.8171515185299316E-03
               9.1904596605242514E-03
              -6.7212889051304235E-04
               2.7261288124474266E-03
               1.7880475082445557E-03
              -1.1045082661922497E-02
               3.4282439475078349E-03
              -4.4900087468314189E-03
               1.9690810851756761E-03
               2.6043735904056377E-03
              -1.0624250002757353E-03
              -3.3126970708145221E-03
              -3.3111112300854536E-03
              -2.3228962790551471E-03
              -1.7409491994848012E-02
               5.4449310781465518E-03
               1.2676618780822168E-02
               1.2112922069649043E-02
              -5.3886663422802288E-03
               2.7674794017540777E-03
         &END THERMOSTAT_ENERGY
         &RNG_INIT
Wiener process for Thermostat # 1        1 F T T  -1.5601997779545997E+00        4027757407.0        1559045809.0        3403552754.0        1703120254.0         453778739.0        2861026355.0             12345.0             12345.0             12345.0             12345.0             12345.0             12345.0             12345.0             12345.0             12345.0             12345.0             12345.0             12345.0
Wiener process for Thermostat # 2        1 F T T  -4.0112764818655514E-02        3838101567.0        1430396723.0        1556923290.0        2889325561.0         607612135.0        3761282217.0        3692455944.0        1366884236.0        2968912127.0         335948734.0        4161675175.0         475798818.0        3692455944.0        1366884236.0        2968912127.0         335948734.0        4161675175.0         475798818.0
Wiener process for Thermostat # 3        1 F T T  -2.7485675335982579E-01         482699311.0        2506409672.0        1202736307.0        1073196783.0        1141297417.0        2856513754.0        1015873554.0        1310354410.0        2249465273.0         994084013.0        2912484720.0        3876682925.0        1015873554.0        1310354410.0        2249465273.0         994084013.0        2912484720.0        3876682925.0
Wiener process for Thermostat # 4        1 F T T  -9.8957058820594379E-01        3129827523.0        3549124345.0        1353678049.0        1344233659.0        2578763699.0        1106953444.0        2338701263.0        1119171942.0        2570676563.0         317077452.0        3194180850.0         618832124.0        2338701263.0        1119171942.0        2570676563.0         317077452.0        3194180850.0         618832124.0
Wiener process for Thermostat # 5        1 F T T   8.1743834600370391E-01         587879607.0         702838090.0         820286405.0        1159088393.0        1840431053.0        2379049004.0        1597262096.0        3906379055.0        3312112953.0        1016013135.0        4099474108.0         275305423.0        1597262096.0        3906379055.0        3312112953.0        1016013135.0        4099474108.0         275305423.0
Wiener process for Thermostat # 6        1 F T T  -4.6635220676026440E-01        1255338812.0        2941627828.0        2767710176.0        1701464963.0        2824905014.0        2257709657.0          97147054.0        3131372450.0         829345164.0        3691032523.0        3006063034.0        4259826321.0          97147054.0        3131372450.0         829345164.0        3691032523.0        3006063034.0        4259826321.0
Wiener process for Thermostat # 7        1 F T T  -2.7221417990508723E-01        2928923925.0        1475590831.0        3028549759.0        1729569924.0         123262326.0        1965188850.0         796079799.0        2105258207.0         955365076.0        2923159030.0        4116632677.0        3067683584.0         796079799.0        2105258207.0         955365076.0        2923159030.0        4116632677.0        3067683584.0
Wiener process for Thermostat # 8        1 F T T  -1.3371509559371584E+00        3293786404.0        2324351260.0        4224364702.0        1341956089.0         912321799.0        2697559406.0        3281794178.0        2616230133.0        1457051261.0        2762791137.0        2480527362.0        2282316169.0        3281794178.0        2616230133.0        1457051261.0        2762791137.0        2480527362.0        2282316169.0
Wiener process for Thermostat # 9        1 F T T  -8.7225140957356684E-01         657961678.0        1513147170.0        2219186603.0        4111646695.0         616753226.0        2747528653.0        3777646647.0        1837464056.0        4204654757.0         664239048.0        4190510072.0        2959195122.0        3777646647.0        1837464056.0        4204654757.0         664239048.0        4190510072.0        2959195122.0
Wiener process for Thermostat # 10       1 F T T  -6.2889449580622436E-01          96284293.0        2446379684.0        3801610533.0        2961863039.0        1877110468.0         129512113.0        4215590817.0        3862461878.0        1087200967.0        1544910132.0         936383720.0        1611370123.0        4215590817.0        3862461878.0        1087200967.0        1544910132.0         936383720.0        1611370123.0
Wiener process for Thermostat # 11       1 F T T   5.7191327297384098E-01         909895394.0        1862319182.0        2400367466.0        1201802882.0        2818881371.0          83822050.0        1683636369.0         362165168.0         814316280.0         869382050.0         980203903.0        2062101717.0        1683636369.0         362165168.0         814316280.0         869382050.0         980203903.0        2062101717.0
Wiener process for Thermostat # 12       1 F T T  -2.0098512161557830E-01        4281566709.0        2729512869.0         275332126.0         437149450.0        1041778670.0        1778805263.0         272317999.0         166758548.0         310112982.0         201045826.0        1680231254.0         118290799.0         272317999.0         166758548.0         310112982.0         201045826.0        1680231254.0         118290799.0
Wiener process for Thermostat # 13       1 F T T   9.4560796151122029E-01        3557498645.0        2583014714.0        2425630516.0         920535172.0        3770643442.0         978988578.0        2245755202.0        1652682525.0        2865544364.0         721509566.0         209733568.0         592362218.0        2245755202.0        1652682525.0        2865544364.0         721509566.0         209733568.0         592362218.0