 # Version information for this restart file 
 # current date 2024-12-01 23:24:45.408
 # current working dir /scratch/work/courses/CHEM-GA-2671-2024fa/students/mr6966/comp-lab-class-2024-MR/Week12-IntroAIMD/Runs/Protons
 # Program compiled at                              Sat Dec 12 18:27:15 EST 2020
 # Program compiled on                                         cs001.nyu.cluster
 # Program compiled for                                                nyu-intel
 # Source code revision number                                       git:8c64c6e
 &GLOBAL
   PRINT_LEVEL  LOW
   PROJECT_NAME water_aimd_1ns_every0.5fs
   RUN_TYPE  MD
   WALLTIME 21600
 &END GLOBAL
 &MOTION
   &GEO_OPT
     OPTIMIZER  BFGS
     MAX_ITER  100
     MAX_DR     3.0000000000000001E-03
     &BFGS
     &END BFGS
   &END GEO_OPT
   &MD
     ENSEMBLE  NVT
     STEPS  2000
     TIMESTEP     4.9999999999999994E-01
     STEP_START_VAL  1000
     TIME_START_VAL     4.9999999999999636E+02
     ECONS_START_VAL    -1.1026470025575584E+03
     TEMPERATURE     3.0000000000000000E+02
     &THERMOSTAT
       TYPE  GLE
       REGION  MASSIVE
       &GLE
         NDIM  5
         A_SCALE     1.0000000000000000E+00
         A_LIST     1.8595758612559999E+02    2.7263853498399998E-01    1.1526100454610001E+01   -3.6414578262600003E+01 \
             2.3173375816020001E+02
         A_LIST    -2.7809524712060002E-01    8.5951591808710006E-05    7.2189048017650004E-01   -1.9844539343859999E-01 \
             4.2409257583420001E-01
         A_LIST    -1.4825808131210000E+01   -7.2189048017650004E-01    1.3590902121280000E+00    5.1498896280349999E+00 \
            -9.9949268450990001E+00
         A_LIST    -1.0372189126880000E+01    1.9844539343859999E-01   -5.1498896280349999E+00    2.6661910891169999E+01 \
             1.1507715495310000E+01
         A_LIST     2.1801346360420001E+02   -4.2409257583420001E-01    9.9949268450990001E+00   -1.1507715495310000E+01 \
             3.0958394565589998E+02
         &THERMOSTAT_ENERGY
               9.6949289493278952E-04
              -4.6573527783177202E-03
              -3.6259530580946488E-03
               1.1924104298694199E-03
              -5.9681193671435144E-03
               4.2352939618951436E-03
               5.6849378455842642E-03
              -2.4671790629080918E-03
               3.0149002854411831E-04
               5.6545521949939387E-03
               7.9091304879098621E-03
              -2.5787357809337590E-03
              -4.5582865996011291E-03
              -4.8407369271341412E-03
               5.1268020460496760E-03
              -4.8530556092195145E-03
               7.4048676426338956E-03
              -9.0611821968842772E-03
               3.5319321742218485E-03
              -1.3226937891034790E-03
               3.1612809421312348E-03
               1.0925400752020242E-03
              -4.0734969780274119E-03
               1.5834903934264022E-03
              -2.1549296775519853E-03
              -1.0058174236316088E-02
               4.6733305490979753E-03
               3.2687404114648613E-03
               1.3855826265581240E-03
              -1.4645330930971433E-03
              -3.7989505530955318E-03
              -4.4189667423426161E-03
              -1.3494377176216633E-03
               6.3360604353266520E-04
              -1.4405849380840450E-02
               1.4530692272140393E-02
              -1.1398467242611093E-03
              -2.2444966652673004E-03
              -5.9362724485495467E-04
              -4.0193660151550611E-03
               7.7428711369602271E-03
               7.8880188556743665E-04
               4.6546838393544737E-03
               2.0414947246585238E-03
              -4.7559820740140524E-03
               3.3431234238009968E-03
              -5.9533571157261156E-03
               1.0725951625152347E-02
               2.9339305153708289E-03
              -8.5555930830351883E-03
               4.5142290463195687E-03
              -7.9967341123734718E-03
              -3.6474433236744251E-03
               8.3930740052203835E-03
              -4.4411114741359252E-03
              -1.9488889931671652E-03
               1.4233227005190482E-03
               1.5574854535315493E-04
               2.0433211545580502E-03
               4.8986328688917250E-03
              -3.3772436669079050E-03
               1.3338501250885603E-03
               1.0793308323099557E-02
               2.8242271578664850E-03
              -3.4274364236478783E-03
              -4.1697408296684999E-04
              -7.1997503957233087E-03
              -3.4377764200173109E-03
               1.4845414079164947E-02
               1.9556634028110014E-03
              -2.6208924691099190E-03
              -1.3322539014006514E-02
              -5.4016589652216441E-03
               2.8490806819752856E-03
               8.9249301510667574E-04
              -7.3328410976365149E-03
               1.0367332946886760E-02
               8.6642475886669294E-03
               7.7086370565852191E-03
              -1.6777588698041878E-03
              -9.2003492316704728E-03
              -2.0996342491376293E-03
               2.6371550408976585E-03
              -4.3043216114059020E-04
               8.1434400600657051E-05
               4.1266908319981168E-03
               4.7039029354056940E-04
               1.6392569007836109E-03
               1.7410192196002777E-03
              -1.4666094226038562E-03
               2.8542969794236508E-03
              -1.7922321468097613E-03
               2.0546270591554928E-03
              -2.7551237336758132E-03
              -1.2090317690891946E-02
               5.4499402648982200E-03
              -2.9512876919716275E-03
               2.8366716654480229E-03
               5.7254426363550701E-03
              -2.8084012381928623E-04
               8.4429047379323482E-04
              -8.2597502243212991E-03
              -2.0069792582414194E-03
              -6.0752166234704103E-03
               7.3212081183950143E-03
               4.0589246797362419E-04
               5.7122994479393034E-03
               5.5725338991041706E-04
               5.1978129799250729E-03
              -3.7284672914213884E-03
              -3.1303421341596693E-04
              -6.7237070142712151E-03
               5.5019652197762997E-03
               8.0434302829901026E-03
               5.9196876431305487E-03
              -7.0997642633847534E-04
              -1.0093258114118283E-02
              -1.0573675660814509E-04
               3.3825992888525634E-03
              -2.1423073458205770E-03
               3.6269755898106345E-03
               5.8471850943431674E-03
               3.4258619290053632E-03
               3.7945589567575494E-03
              -9.2649455070095647E-03
              -8.3529326773740583E-03
               3.6579206342054480E-03
               8.9636104334087172E-04
               3.1537527598662399E-03
              -6.6517243962051142E-03
              -3.2285321743717272E-03
               3.3406997778193015E-03
               2.4250778935937323E-03
               7.2971440769266475E-03
              -4.1453458224799174E-03
               1.4404793428684237E-03
              -2.7903905668119019E-03
              -7.7669224144028487E-03
               4.8970281799065509E-03
              -4.8851381969920752E-03
               7.9753644492190478E-03
               6.8809942691552307E-03
               8.5983350168887512E-03
              -7.9698438073083060E-03
              -3.4189464833131885E-03
              -1.5354501936093567E-03
               2.9241301800475368E-03
              -3.5966102861802987E-03
              -1.1362675582968574E-03
              -5.4893464570338396E-03
              -4.4449039556327128E-03
               3.3488605192130844E-03
              -7.8406307971909633E-04
              -1.2205258393550558E-03
               4.2874431870517185E-04
               1.4554471621843981E-04
               1.8846538467694033E-03
               2.0662293992304223E-03
              -7.9664619614330974E-03
               6.5206368642628122E-03
              -4.1984245847757722E-03
              -6.4011606660756217E-04
              -2.8014888547956140E-03
               1.5203157497506524E-03
               8.6631258854405185E-03
               1.2716702807390758E-02
               2.0926467080902201E-04
              -6.4547207781262550E-03
              -1.0396432915480347E-02
              -1.9397924468856839E-03
               1.7083782922023779E-03
               2.6529058939885040E-03
              -3.6122327586322763E-03
              -3.1104212023269563E-04
              -4.3421059516897120E-03
               5.9002071561336232E-04
               1.1815071232382131E-02
              -3.0487883478523083E-03
               7.4224457494489852E-03
               3.6452531094354063E-03
              -2.2877504449321110E-03
              -1.3393079138649523E-03
               2.5353652748817857E-03
              -5.2659345671707903E-03
               1.3776398239546822E-03
               1.0171894751546504E-03
              -7.0274246123604156E-04
              -1.9976032451892653E-03
              -4.2409221804469580E-03
              -4.7458163047139375E-04
              -1.1443655480441839E-03
              -1.6691257712388068E-03
              -2.7675417872526642E-03
               9.0752020012945878E-04
               5.5660773651956654E-03
              -3.8200955026502625E-03
               1.0516005318645372E-03
               1.2741141930929913E-03
              -9.9779742034944831E-04
               2.9346434458606620E-03
               9.1668803007535706E-04
              -8.1610713727223033E-03
               6.3759644603666370E-04
              -2.0290686812308345E-03
               2.1856054262438282E-03
               2.6806073437653758E-03
               3.7616216058814966E-03
               2.8397352324884165E-03
               3.1124975996367149E-03
               6.1454138071425444E-03
               2.2153540202665854E-03
              -2.1700120163673296E-03
               3.2496349598253290E-03
              -1.9001552436954839E-03
              -4.0872187921759499E-03
               1.9024246642975545E-03
              -6.4654450144972504E-04
              -1.1157944882918683E-03
              -2.0546797976357103E-03
              -1.0334704121912808E-03
              -2.6436910211324093E-03
              -1.9538301838081832E-03
              -5.7359493695568285E-03
               5.2024103542000445E-03
              -7.2928302692550399E-04
              -3.2044755516904781E-03
              -6.5273239986835116E-05
               2.3526949764940980E-03
              -6.2903371444732684E-03
              -7.1149165987486674E-04
              -3.0917781397290893E-03
               4.1275724165531109E-03
               6.1834625339558568E-03
              -1.6167693460367293E-03
               2.5665981616075730E-03
              -1.2693158283630406E-05
              -4.6910041142394512E-04
               1.0454575481646108E-03
               8.9011383613591365E-05
               1.4278995969470498E-03
               2.3573530910326167E-03
              -9.9268024462717333E-03
               5.8873473809340953E-03
              -8.4329391098194153E-05
              -1.8637709132924335E-03
               1.3673635633385832E-03
               1.1131503615546445E-03
              -2.7682827464376170E-03
              -2.5781318146021756E-03
              -1.2234807989155200E-03
              -8.2126092944574680E-04
               2.4801159269142929E-03
              -4.5562554937594972E-03
              -3.0852161212716455E-03
               3.9369294654249985E-03
              -1.9355917730444231E-03
               1.5387304799126457E-02
              -5.3635215054731716E-03
               3.4797849110197432E-03
              -1.7787794675609314E-02
               1.4433801162323996E-02
               8.2772387534339720E-04
               5.7870183711363314E-03
               8.5196064104696208E-03
               9.9436096018245563E-03
              -7.1731281715821625E-03
               7.9432695587601266E-05
              -6.8552301529453867E-03
              -4.9311841154250037E-03
               5.9385576799002382E-03
               1.0402029427053388E-03
              -4.9170971820439264E-03
               5.9497840507519084E-03
               1.7847001576049883E-03
               4.8938971238913975E-03
              -5.4885149363467930E-04
              -1.6778463033281781E-02
               9.7204630787434895E-03
              -7.3187570375156863E-03
               3.1290477977146207E-03
              -2.0075597570227426E-03
               4.3230750625781788E-03
               4.7179490169729187E-03
              -5.2256698430174506E-03
               4.6004730279777736E-03
              -6.2732408456838713E-03
               6.9332540825853316E-03
              -2.2214045258501735E-03
              -2.5918876366954817E-03
              -9.4082266058840484E-04
              -1.1757329243548801E-04
              -7.6708375831250860E-04
               4.5304745620271415E-03
              -2.1784099139507303E-03
              -1.4380559714238740E-03
               4.0282484319557254E-03
              -6.2120950861697241E-03
              -2.1226293559043967E-03
              -4.7690639304933573E-03
              -4.2933928158656095E-03
               2.6416774485398550E-04
               1.1006717060128339E-02
               1.6835205674538460E-03
               1.9832156866222369E-03
               6.4167654648349722E-03
              -8.4209885375084725E-03
              -1.2088165489403651E-03
              -1.9058261813753843E-03
               2.3079063518074571E-04
               1.3449136201873480E-02
              -3.0119479740490988E-03
              -1.2019155935104496E-02
               1.0456772116745582E-03
               7.8484803034272171E-03
              -8.6549749516527750E-04
               4.4542609197122862E-03
               1.3875406486036973E-04
               3.4662193776052418E-03
               4.1528511282852738E-04
              -4.9011052582166679E-03
               1.3280509745020713E-02
              -2.4256352664841024E-03
              -8.0989793506393327E-03
               3.8521670203539009E-03
              -8.4058169777829355E-04
               4.2739501307861427E-03
               9.9671793156697747E-04
               3.2524441673919017E-03
               1.9983563705222515E-03
              -9.9973162202434893E-03
              -1.5514420881939924E-03
              -1.0048702085652060E-02
               7.3111853275411223E-03
              -4.5908594593158389E-03
               9.7996787199205624E-04
               1.7469647748496458E-03
               1.1661964061075987E-02
              -3.6876420353171404E-03
              -7.2880203992152183E-03
               4.3398904741466949E-03
               2.5419970087811979E-04
              -2.1193638853253581E-03
               3.3408788373619769E-03
               1.8157016149219589E-03
              -1.2840960265460295E-03
              -8.1045931828156031E-03
               1.2725103302489622E-02
              -5.4895347957977401E-03
              -6.3132372616971581E-03
               1.2234874600799499E-03
               3.0918680947459518E-03
               7.9179310062026057E-03
              -5.6531127553266450E-03
               8.6331848696250034E-04
              -2.8869277051217588E-03
               4.6541953134455732E-03
               1.3344513268472510E-03
              -4.8049741857779599E-03
              -1.3171209225320863E-03
               7.6741550933137267E-03
              -2.4473553024395456E-03
               4.4657720917348461E-04
              -3.7398739994002239E-03
              -5.7894092667816442E-03
              -8.7592988318114661E-04
               1.5425427705838674E-02
               1.5057096536213290E-03
               1.3673037505818099E-04
              -2.6639816880306877E-03
              -3.7097938053397717E-03
               4.1938164233961562E-03
               2.7310687623737797E-03
              -8.7540012852183155E-04
              -3.5650610355920571E-03
              -2.0010624286590723E-03
              -9.3760990677343187E-03
               5.6955902288808799E-03
               2.9052227826102273E-03
              -2.9353191174679306E-04
              -6.2301792029222341E-04
               3.0478598308931841E-04
               3.7513575745037652E-03
               1.3198264346254466E-02
              -3.9769155121076923E-03
              -1.7939918613988394E-02
               7.9211412899969427E-03
              -5.4793041477075345E-03
              -4.5860402564202995E-03
               3.4842589034907325E-04
              -2.6944539361096966E-03
              -2.1319249627464796E-03
               7.9479666636339042E-04
               4.1837216753311118E-03
               2.5739406309792064E-04
              -9.8237792954768925E-04
               7.6728052165714019E-04
              -3.9459973001166083E-03
              -3.2072851069623242E-03
               3.1617355496827877E-03
              -1.4895345563222789E-02
               1.9362648229574583E-03
               8.3897499290493272E-03
              -7.3983592193683318E-03
               6.4862954598801882E-03
               6.6445443472774408E-03
               3.5852013387353294E-03
              -9.4990822132019477E-04
               6.2204530169275235E-03
              -9.6553393801259088E-03
               1.6695639306537964E-03
               6.8707962220214544E-03
               5.1218131086826733E-03
              -1.7938027153627865E-03
               5.3124689360165046E-03
              -2.6598408285450972E-03
               4.4972611826334941E-03
              -1.2896427341968350E-03
              -9.1209832670783378E-03
              -3.7375178026522698E-03
               4.7303599636251111E-03
               4.2281652468690033E-04
              -7.0687448372068612E-03
               3.6351285998558708E-03
               1.0170310993509570E-02
               1.7166806484697421E-02
               1.3067700908744118E-02
               9.7212663508560865E-03
              -5.1208736633995304E-03
               9.9487438514840962E-03
               3.1424249027313472E-02
               5.8907080697098825E-03
               1.9872137275069252E-03
               5.4171134960211711E-02
               2.4677318270296438E-02
               2.2573017862232429E-02
               2.6839493276861505E-03
               1.8811566867091584E-03
              -2.2663754547028528E-03
              -1.4406995886323581E-03
               7.7984583606344453E-04
               1.3485793228023234E-04
               5.9009161126445230E-03
              -5.5519869687962607E-04
               3.7403650761424216E-03
               4.8024861159175290E-04
               7.3995548335342963E-03
               5.5333649524993934E-03
               4.1865364819605819E-03
               1.0051626722003600E-03
              -1.0829971875895142E-02
               2.0912224458006288E-03
              -5.7241443029990534E-03
               6.6886703961171650E-03
              -6.9664265616332108E-04
              -2.6807367002938710E-03
              -3.2383022135579315E-03
              -2.9228772804889922E-03
               3.5846377969784549E-03
              -8.2172623770333676E-03
              -1.7185789206349490E-03
               4.0078719393654410E-03
               7.8163046642154010E-03
              -3.2382520944195664E-03
               1.1856708318426375E-03
               7.0012737222044140E-03
               2.9909281383763021E-03
               8.5520157226555665E-04
              -5.9795217047879387E-03
               5.9887152354456668E-03
              -3.7701788354250953E-03
               8.1530276419222432E-04
              -1.0988248668740385E-03
               8.9458745279240694E-04
              -3.0932355148202361E-03
              -3.4864199445117246E-04
               6.5570728692968538E-03
               8.6111775475478222E-04
               6.6464709371033938E-03
              -1.1487112343651885E-03
               6.4091983270774507E-03
              -2.5770496478298585E-04
              -3.1260988366997831E-03
               4.8402448708829049E-04
               2.4298360661109109E-03
               4.1549905835908153E-03
              -2.2248824251744769E-03
               6.2847909882377774E-03
              -2.4087724885320551E-03
               1.8029177932136499E-03
              -5.3040985076297778E-03
               1.7255652852446819E-03
               4.8588206599544928E-03
              -5.3583504507428888E-03
               4.4930948952377932E-04
              -4.3043107835259130E-03
              -2.5052982940990294E-03
               9.0210030180575274E-03
               7.6463684917345304E-03
               2.7089757186161108E-03
               2.7321389962421012E-03
              -3.3010491214834933E-03
               5.1264392904056995E-03
              -1.4782900399220603E-02
               1.9938353906218245E-02
              -3.2856843273446198E-03
              -6.8967213266476791E-03
              -1.0544605469570824E-03
               2.8595943465544723E-04
               4.4080977535188642E-03
              -7.4762234945319764E-05
               3.1807985260317133E-03
               1.5844118817675776E-04
              -6.8146721496621923E-03
              -1.0018848214919674E-02
               9.2573657866850314E-03
              -5.2676444562578511E-03
              -5.9112545134403652E-03
               3.3183699445034926E-03
               4.4889054127563409E-04
               2.8372235596358444E-03
              -7.6107564494642659E-03
               2.0647519607582456E-03
               2.1207615549776564E-03
              -8.0693301820933922E-04
               3.6594076830129114E-03
               1.0136596260352564E-02
               2.2614094700429161E-04
               8.0788795447610685E-04
               4.9316418389797295E-04
               2.6666618508026626E-03
               5.7661959157155451E-03
               1.4763556402209324E-02
              -3.5169642583604190E-03
               4.1230230325874978E-03
               3.4978220426599947E-03
               2.7300040183903438E-03
               2.7873492097578428E-03
              -5.6629705474046102E-03
               7.3940387918267005E-04
               9.8889823016822167E-03
              -3.4067579567952425E-04
              -2.7170673738190665E-04
               1.3084998561641694E-03
               6.4752974406971954E-03
               9.4057026211573583E-03
               3.9371291888751523E-04
               1.8548480570727505E-03
               2.6363384233836556E-03
               5.1794492789155166E-03
               1.0251968395364134E-03
              -9.9378579192953304E-03
               9.7371638265338544E-04
              -3.0622917516319429E-03
              -2.4500523655840278E-03
               2.4020164764502563E-03
              -1.7349215704010228E-03
              -3.1888909033589573E-03
              -3.9979952349740886E-03
               1.4519862353405346E-02
               7.5935411836660250E-04
               8.1578528743623986E-03
               1.6149460154123057E-03
               1.5475717963603938E-03
               2.2432907967315506E-04
              -5.3302464346267897E-03
               2.0085391964314949E-03
              -6.2620278297359944E-04
              -8.9757912308651865E-04
               1.5716756917764163E-03
              -5.0277768741418128E-04
              -4.3538798533603214E-03
              -5.6879442855695666E-03
              -1.2169334906958617E-03
              -1.4089566574741337E-02
               1.9971531082488736E-03
               2.0145789781649531E-03
               1.3031215569490088E-02
               2.0227040449584794E-03
              -1.6825997887863580E-03
         &END THERMOSTAT_ENERGY
         &RNG_INIT
Wiener process for Thermostat # 1        1 F T T  -9.8236738167888460E-01         226733040.0        4248387519.0        1164353849.0        2758509449.0        3644127687.0        1764793484.0             12345.0             12345.0             12345.0             12345.0             12345.0             12345.0             12345.0             12345.0             12345.0             12345.0             12345.0             12345.0
Wiener process for Thermostat # 2        1 F T T  -1.4171306107827426E+00        1528154308.0        2775625301.0         197130159.0        1452211673.0        1835562137.0        1983376171.0        3692455944.0        1366884236.0        2968912127.0         335948734.0        4161675175.0         475798818.0        3692455944.0        1366884236.0        2968912127.0         335948734.0        4161675175.0         475798818.0
Wiener process for Thermostat # 3        1 F T T   8.6049543281786645E-01        2248570378.0        1724762616.0          52903713.0        3229622658.0        3199004837.0        4241126217.0        1015873554.0        1310354410.0        2249465273.0         994084013.0        2912484720.0        3876682925.0        1015873554.0        1310354410.0        2249465273.0         994084013.0        2912484720.0        3876682925.0
Wiener process for Thermostat # 4        1 F T T  -1.5460863137690717E+00         957380376.0         510326667.0        2247033635.0        2033071685.0        3054261466.0        3462352516.0        2338701263.0        1119171942.0        2570676563.0         317077452.0        3194180850.0         618832124.0        2338701263.0        1119171942.0        2570676563.0         317077452.0        3194180850.0         618832124.0
Wiener process for Thermostat # 5        1 F T T   1.5428690481661575E-01        4203301200.0         738999836.0        1485820986.0          20648636.0        2223680357.0        4294941489.0        1597262096.0        3906379055.0        3312112953.0        1016013135.0        4099474108.0         275305423.0        1597262096.0        3906379055.0        3312112953.0        1016013135.0        4099474108.0         275305423.0
Wiener process for Thermostat # 6        1 F T T   7.0411917217518150E-01        1265311014.0        3687607523.0        1792102642.0         142025920.0         459804801.0        1211121065.0          97147054.0        3131372450.0         829345164.0        3691032523.0        3006063034.0        4259826321.0          97147054.0        3131372450.0         829345164.0        3691032523.0        3006063034.0        4259826321.0
Wiener process for Thermostat # 7        1 F T T  -9.5744195640119531E-02        4040223344.0        4246262317.0         329086624.0          28777921.0        2946509694.0        1489700490.0         796079799.0        2105258207.0         955365076.0        2923159030.0        4116632677.0        3067683584.0         796079799.0        2105258207.0         955365076.0        2923159030.0        4116632677.0        3067683584.0
Wiener process for Thermostat # 8        1 F T T  -1.2413826789147817E-01         252045112.0        2848200345.0         154646410.0        1271924195.0        1873079261.0        3351978939.0        3281794178.0        2616230133.0        1457051261.0        2762791137.0        2480527362.0        2282316169.0        3281794178.0        2616230133.0        1457051261.0        2762791137.0        2480527362.0        2282316169.0
Wiener process for Thermostat # 9        1 F T T   1.0331244080464512E+00        3784506675.0        1914172684.0        3527875272.0        1610827989.0        3855196701.0        1117597481.0        3777646647.0        1837464056.0        4204654757.0         664239048.0        4190510072.0        2959195122.0        3777646647.0        1837464056.0        4204654757.0         664239048.0        4190510072.0        2959195122.0
Wiener process for Thermostat # 10       1 F T T   2.1466585360569199E-01        3057685686.0        2869029583.0         411221469.0        2821893460.0         322924656.0        1143227575.0        4215590817.0        3862461878.0        1087200967.0        1544910132.0         936383720.0        1611370123.0        4215590817.0        3862461878.0        1087200967.0        1544910132.0         936383720.0        1611370123.0
Wiener process for Thermostat # 11       1 F T T  -4.4132046785776799E-02        1554543736.0        2717576499.0        4135075403.0        2618383353.0         642871762.0         249586537.0        1683636369.0         362165168.0         814316280.0         869382050.0         980203903.0        2062101717.0        1683636369.0         362165168.0         814316280.0         869382050.0         980203903.0        2062101717.0
Wiener process for Thermostat # 12       1 F T T  -5.6161533877704317E-01        1770324141.0        3770017049.0         190859559.0         764828178.0        2918138424.0         736540625.0         272317999.0         166758548.0         310112982.0         201045826.0        1680231254.0         118290799.0         272317999.0         166758548.0         310112982.0         201045826.0        1680231254.0         118290799.0
Wiener process for Thermostat # 13       1 F T T   9.7554409384929153E-01        3627045108.0        1898589428.0        2752141753.0          85759421.0        2499273175.0        1137986601.0        2245755202.0        1652682525.0        2865544364.0         721509566.0         209733568.0         592362218.0        2245755202.0        1652682525.0        2865544364.0         721509566.0         209733568.0         592362218.0