 # Version information for this restart file 
 # current date 2024-12-01 21:07:59.553
 # current working dir /scratch/work/courses/CHEM-GA-2671-2024fa/students/mr6966/comp-lab-class-2024-MR/Week12-IntroAIMD/Runs/Protons
 # Program compiled at                              Sat Dec 12 18:27:15 EST 2020
 # Program compiled on                                         cs001.nyu.cluster
 # Program compiled for                                                nyu-intel
 # Source code revision number                                       git:8c64c6e
 &GLOBAL
   PRINT_LEVEL  LOW
   PROJECT_NAME water_aimd_1ns_every0.5fs
   RUN_TYPE  MD
   WALLTIME 21600
 &END GLOBAL
 &MOTION
   &GEO_OPT
     OPTIMIZER  BFGS
     MAX_ITER  100
     MAX_DR     3.0000000000000001E-03
     &BFGS
     &END BFGS
   &END GEO_OPT
   &MD
     ENSEMBLE  NVT
     STEPS  2000
     TIMESTEP     4.9999999999999994E-01
     STEP_START_VAL  8
     TIME_START_VAL     3.9999999999999991E+00
     ECONS_START_VAL    -1.1026470025575584E+03
     TEMPERATURE     3.0000000000000000E+02
     &THERMOSTAT
       TYPE  GLE
       REGION  MASSIVE
       &GLE
         NDIM  5
         A_SCALE     1.0000000000000000E+00
         A_LIST     1.8595758612559999E+02    2.7263853498399998E-01    1.1526100454610001E+01   -3.6414578262600003E+01 \
             2.3173375816020001E+02
         A_LIST    -2.7809524712060002E-01    8.5951591808710006E-05    7.2189048017650004E-01   -1.9844539343859999E-01 \
             4.2409257583420001E-01
         A_LIST    -1.4825808131210000E+01   -7.2189048017650004E-01    1.3590902121280000E+00    5.1498896280349999E+00 \
            -9.9949268450990001E+00
         A_LIST    -1.0372189126880000E+01    1.9844539343859999E-01   -5.1498896280349999E+00    2.6661910891169999E+01 \
             1.1507715495310000E+01
         A_LIST     2.1801346360420001E+02   -4.2409257583420001E-01    9.9949268450990001E+00   -1.1507715495310000E+01 \
             3.0958394565589998E+02
         &THERMOSTAT_ENERGY
              -7.3052569096976761E-04
               4.3726935701598731E-04
              -9.9536575630384400E-04
              -2.2449773055147519E-03
              -1.9646117323883283E-05
              -3.2130353075061099E-04
              -3.4339516211593323E-04
              -4.0721747494678570E-04
              -5.5645077435348064E-04
               1.4541625560463094E-03
              -1.7746037192482510E-03
              -4.3233519517205804E-04
               9.0067773565041733E-04
              -2.6272197132400511E-04
               2.7689645507405727E-04
              -8.9234823118343606E-06
               5.3894921880409837E-04
               1.6561029390148641E-04
              -8.0827683533316798E-05
              -2.6406032313186186E-04
               1.5166639142541029E-04
               1.7503121980652751E-03
               5.4510557360715152E-04
              -5.3526356706114891E-05
               2.0545833746122628E-04
              -1.5821086012668200E-03
               3.6551448882481195E-04
              -4.5916845888224468E-05
              -1.7745432275773716E-04
              -1.6256473375835721E-04
              -4.7413667090440549E-04
               9.5544989488259915E-05
              -3.4729071430310114E-03
              -2.6953152771721378E-05
               1.6941012544313824E-04
              -7.2281890244318763E-04
              -1.8088676923503865E-04
               1.0611002957599234E-04
               3.7456198729658144E-04
              -4.1162535371232732E-04
              -2.2508640245821546E-04
               1.0547294745585971E-04
              -5.8934862713046687E-04
               1.0646848729292929E-03
              -7.9394741143595880E-04
               1.8541809400151967E-03
               8.9710620538774885E-05
               2.5602032495196061E-04
               4.4216938388119621E-04
              -5.0158693652540328E-04
              -1.3220137241116937E-03
               4.7482516435531550E-05
              -2.8949074182990848E-04
               7.9399246036006445E-05
              -4.0628702792057191E-04
               3.8653475348700029E-05
              -4.5455675419110855E-04
              -3.2807047440159979E-04
               1.6472917076171956E-04
              -2.5706556745860448E-03
              -7.0567052695730704E-04
               1.1844945233835946E-03
               8.4250370810402201E-04
               8.6954466657508472E-04
              -7.1747407974360111E-04
               2.3897233305965728E-04
               6.5472759830498305E-04
               4.8651903113055536E-04
              -2.8991741841648987E-04
               1.1132553149906716E-03
              -7.6463080841491777E-04
               1.3485626706432048E-03
              -8.4726722561391911E-04
               2.2012099197246931E-04
              -9.1938021527228732E-04
               9.6807078595319014E-04
               5.9809077776339136E-04
               6.2004249486991275E-04
               6.1228130462934486E-05
              -5.3127612962115139E-04
               1.6234246525717686E-04
              -3.3685901847945471E-05
              -2.1808820577572802E-05
              -4.4396181872684667E-04
               1.0658345054521310E-03
              -5.8867780822149068E-05
              -4.1999389613017767E-04
               5.0964567314956515E-04
              -4.4466697896845963E-05
              -7.4594249325927306E-05
               2.5772467749341844E-04
              -3.1180011744588818E-04
               3.2419697656484761E-04
              -1.4883221044796184E-03
               2.2643484598476398E-04
              -4.3712957712339928E-04
               1.5924059708823340E-05
               3.3858986912848775E-04
               2.2780556275106892E-04
               2.6203716376755893E-04
              -8.1568128471091214E-04
               4.3554167387886374E-04
              -8.6642935307380711E-04
               5.6172515142433759E-05
              -3.1411524728523646E-04
               9.3822383919258377E-04
               9.8569704719323847E-04
               1.8729337854157298E-04
               1.4406007023529722E-03
              -3.6569644872741118E-04
               8.9466564493773597E-05
               1.3717529842494308E-04
               1.1207087250360759E-03
              -2.0124494215442643E-03
              -4.5632162530991784E-05
               6.1717836135874134E-04
              -8.8890089094276583E-04
               1.2454302221568717E-03
               1.0812316239031850E-04
              -1.3221256562730301E-04
              -6.9404408343167807E-05
               9.3147426944276246E-05
               1.5368348707461943E-03
              -4.2772588251667535E-04
               1.0381976734781623E-04
              -5.2338440650283248E-04
              -7.8975326402022433E-04
               4.9032837312205913E-04
               8.0952821949895320E-05
              -1.3889007560197886E-03
              -5.4774346409867979E-04
               1.8678399873775961E-04
               1.7825501123892836E-03
               2.8780607117870251E-05
              -3.1956046581026426E-04
              -1.0073542565221176E-04
               1.9166515052956038E-04
              -1.4831884944193859E-05
               5.7175299337634572E-04
               9.6038329273185014E-04
              -3.0005600654841734E-04
               5.2787801480307811E-04
              -4.4365346744033786E-04
               4.5859466419414813E-04
              -7.9640616416431576E-04
               3.6876296070906251E-04
              -2.6828675313802899E-05
              -6.6210505997059779E-04
              -9.1372634383972605E-05
               2.5739549972326190E-04
               1.0464258844139568E-05
              -5.2920784632490313E-04
               2.1690437850630176E-04
               2.2863682325440789E-04
               2.8150949212133358E-04
              -1.4354066849443326E-03
              -5.8142715529491151E-04
              -7.7969985334448624E-04
              -1.5956984512306427E-03
              -8.2557857162101646E-04
              -1.2501137162135794E-04
              -8.8133239102215923E-05
              -8.7742157536588479E-04
              -1.4284405336847816E-04
               1.4168472317170086E-03
               9.0629555461368310E-05
               8.8110194407169053E-04
               4.6656021751264232E-04
              -6.1560523730080604E-04
               4.3897438062867188E-04
               3.2028573514353672E-04
               9.8975337389953450E-04
               1.9408520088967359E-04
               6.4155260901295344E-06
              -3.9760181811243682E-04
              -2.8665909157122373E-04
              -1.3694007327141912E-03
              -3.1455878468685769E-04
               1.3037581243087703E-04
               2.0984788345004265E-04
               2.6097393055210028E-04
               5.6143165904812796E-04
               4.0278047041364325E-04
              -5.5217762508666022E-04
               9.2491294035909220E-05
               2.4255066956305420E-05
              -3.2556974347715457E-04
              -1.0896235648031997E-03
               1.6115300769661981E-05
               2.3885744496044838E-04
              -5.8353795470281167E-04
               3.2006369559976430E-05
               1.0870120096913234E-04
              -4.7152198474060213E-04
              -5.2581483000367179E-04
              -1.5431042738036022E-03
              -1.3844137231554027E-03
               2.8447922573963702E-04
               4.8222124487372147E-04
              -4.0979667287577856E-04
              -8.3915608359517980E-05
               8.3646620383529425E-05
               4.8218801661783280E-04
              -3.2970794765699784E-04
              -1.1778997296877885E-03
              -2.4829682704003884E-04
               1.2345416261025509E-03
               4.6374324448187709E-04
               1.0489283055684113E-04
               2.2915995291626200E-03
              -5.0912425842898265E-04
               1.1325113151139528E-03
               1.5174268340942259E-03
              -2.3929543992083522E-03
               7.5481207169508617E-05
              -1.6834225940672742E-04
              -2.0320425472048218E-03
               8.6017122739576917E-04
              -9.7433725454471764E-05
              -3.2279918965497030E-04
               1.2562705879307849E-03
               1.3151460516210692E-04
               3.8116539138054265E-04
               7.0189832124233770E-04
               8.7728222080661543E-05
               8.0213362421001745E-04
               1.5468986750150401E-03
              -9.0060663109777872E-04
              -1.3033892172270892E-04
               1.2196272579861379E-03
              -5.7190654133654727E-04
               9.4081616640926302E-04
               5.2230299212400869E-04
               5.0602042245721183E-04
               6.7090766426657582E-05
              -4.1449648114544704E-04
              -1.4429616264408855E-03
               1.6002031535181809E-04
               2.8248250438220557E-04
               1.2851533989247964E-04
               4.6181566806465001E-06
               2.6286316007442372E-04
               1.5627512123612807E-03
               1.9087058715957102E-03
              -2.1735762286504014E-04
               2.5377092048192512E-05
               1.0945574293820282E-04
               2.7167874279174806E-04
               3.5100580495078392E-04
               6.2349689425760988E-04
               3.0955646754017888E-04
               2.6241119759779278E-04
              -7.2320340842740578E-04
              -6.6557019125062004E-04
              -8.2268757446461962E-05
              -1.7060095218224611E-04
               2.8677369326291039E-04
              -2.7652599460059412E-04
               9.8696479141664609E-04
              -1.9369905759319923E-04
               2.3315057333410404E-04
               2.7351818148364256E-04
              -6.8120664134347335E-05
              -3.8135970570087299E-05
              -9.6005794109509351E-05
              -1.0253861185231951E-04
               3.5853742973856610E-04
               5.7751824974617736E-04
               2.6315996669840395E-04
              -3.6366443019741456E-04
               3.5545478418544390E-04
               1.3631466571597950E-04
               5.3554788505417767E-04
               1.9263985020395778E-04
              -1.0032652840371455E-03
              -2.1537144011876176E-05
              -6.1275602279480627E-05
              -4.3510090550121433E-04
               3.8584916152692325E-04
              -2.4868759020052895E-04
              -2.6865998874449403E-04
              -2.0061188090059164E-03
               5.4961436712857952E-04
               8.6117382114069430E-04
              -1.3525313879200092E-03
               1.5327725989398139E-05
              -1.5704787778895372E-03
              -8.8119811429104584E-04
               6.2720017417070494E-05
               8.0131321433547906E-05
              -3.1963335230734448E-04
               3.6013628889656232E-04
              -2.4722035668853763E-04
              -3.3704537000552384E-04
               2.0825895454881446E-05
               1.7773348380593017E-04
              -6.1170660913247032E-04
              -4.3611234972149173E-06
              -2.4962865753698667E-04
              -5.5847539029362024E-04
               9.5893704057876906E-04
               4.1292304354869827E-04
              -1.6305520892848726E-03
               2.0110322011990343E-04
               8.4916839463773381E-04
               2.2151796362156751E-04
              -1.5636291770741652E-04
               4.2287170606214230E-04
              -1.0142394543981919E-03
               2.0152440563108034E-04
               3.9975620868731409E-05
               9.5910171415837899E-06
               3.2728443561913304E-03
              -2.3368107938779307E-04
               3.6236970937728583E-06
               7.5269185508084196E-04
              -4.0855665611939885E-04
               1.2206111211050892E-03
              -1.2009820188224954E-04
               1.2795291768434396E-03
               7.2019706295562281E-04
               5.1906378648301429E-04
              -4.1867027209911174E-04
              -5.5385247825529439E-05
              -7.7472484938598263E-04
               3.7453775905555017E-04
              -4.5211409467210619E-04
              -6.2339140478900835E-04
               1.3728900066833992E-04
               4.3118369669713295E-04
              -8.0177883898439471E-04
               6.4903567608267537E-04
              -2.0179302579330472E-04
               5.9804030364875435E-04
               5.4735256608164301E-04
              -7.8904027526373387E-04
               1.5334342141138720E-03
               1.5614032291970528E-04
              -1.0205307106164608E-04
              -1.2053704366031456E-04
              -1.8074268890549587E-04
               5.9981978724281014E-04
               1.8585886495437022E-03
               3.7804101906784975E-04
              -7.7511761077901165E-05
              -1.7649692963909967E-04
              -1.0969699300758344E-04
               3.6510284217882761E-04
              -6.3481815621547105E-05
               8.8927158881617753E-05
               1.3466768435439611E-04
               6.1419307971627478E-05
              -8.5032952506708653E-04
              -1.0800521904057271E-04
              -1.2697127919602668E-04
               2.2927550221535738E-05
               2.9338296997744051E-04
               7.2378225292209263E-04
               7.2089818574496659E-04
              -8.1670857406238777E-05
              -1.5234854565049465E-03
              -1.4196181653520273E-04
              -3.4154142887037574E-04
              -5.9555344164393233E-04
               2.2930464810718443E-04
               3.6975269563342266E-04
              -3.1264985259126486E-04
              -1.0261813690127348E-04
              -4.7399401959372908E-04
              -7.6293321456131439E-04
               4.3572392765506220E-04
              -1.8723410592637942E-04
              -2.1800477472403592E-04
              -2.2395255281830711E-04
              -1.7742968204067692E-04
              -2.1276517037472267E-03
              -4.4277497002565035E-04
               5.2439539225908360E-04
               2.3381854391337284E-04
               7.5524418338512628E-04
              -1.8179031957561362E-04
               4.0533093600020212E-04
              -1.4333510238508399E-05
              -7.5221186187811510E-05
               2.7476135030928759E-04
               1.3347703125278570E-03
               6.7518427480643982E-05
               9.9302689307531971E-06
               4.7648272946329968E-04
               2.3654047230423019E-04
               4.9216958646618311E-04
               5.9494384122221321E-04
               1.3585861384921336E-04
              -7.1452638251665534E-04
              -1.2862760884798242E-04
              -7.8434804396233164E-05
               1.1126723653095028E-03
               2.5384280451882683E-04
               4.2377239258607996E-04
              -1.3467707053047588E-03
              -1.8033827256462675E-03
               2.2327801180822702E-04
               2.9267229801977108E-04
               1.0849044243317618E-05
              -2.1640050981772534E-04
               1.0104012433490012E-04
               2.2216028212004956E-05
               9.3234882025447193E-04
              -2.9228258016975885E-04
               3.6749208564060927E-04
               3.2977817782352259E-04
               4.6638055125811637E-04
               2.5519056493813840E-04
               1.1642851606298587E-03
              -2.2940709994778938E-04
              -9.7883191525385339E-05
              -1.0309547571906435E-03
              -4.5971226884184872E-04
               4.4013418214766697E-04
              -1.1306606183745147E-03
               3.0257183587971886E-04
              -3.0371940729615501E-04
              -9.5241826270751526E-04
               4.9473048139880632E-04
               8.5770167867895743E-04
               6.8497995733630499E-03
               1.2998771265319764E-03
               6.6359954167594028E-04
               5.7561846768482009E-04
               9.6052348444469610E-03
              -2.2760787514004553E-04
               8.6449811743723897E-04
              -2.8874237291299371E-05
               1.2435095319117005E-04
              -4.7662212609929757E-04
               1.3456104176059769E-04
              -2.4392361010880547E-04
              -7.8180376924240667E-05
              -4.3213949484993664E-04
              -2.2962934470233796E-04
               5.0582806692678692E-05
              -1.9021014398032793E-03
               4.0347816337494354E-04
               1.1170315426312606E-03
              -6.3401839287737993E-05
               6.2450641008769990E-05
               3.7776724851969743E-04
               7.0721472088445419E-05
               3.5431920021376952E-04
               2.5078226089533535E-04
               5.0695431924092438E-04
              -7.2932050217626855E-04
               2.3291465353976349E-03
               8.2814551671900002E-04
              -1.6371401104003924E-03
              -6.4524788273828083E-05
              -3.5759203717736308E-04
              -8.1736372594463425E-04
              -8.8447375140865414E-04
              -2.3408317070414330E-03
              -6.2650691562913163E-04
              -1.6818342126404761E-03
              -2.4520181948360290E-04
              -1.4257947801496174E-03
               6.6288797301222680E-04
              -7.4004926592008272E-05
              -4.1461709762553476E-04
              -2.7143843273835034E-03
               8.8319658795556720E-04
               3.6324900952253679E-05
               1.5970626991063230E-04
               1.5496988414872000E-04
               9.9710119290252796E-04
              -6.1972222124333112E-04
              -3.0423399733514486E-04
               1.0049257882339963E-03
               6.5153945017097583E-06
              -1.9156344980253542E-04
               8.5212925457761341E-04
               7.1637689377814211E-05
               1.9465522770696622E-03
               6.6660525696189097E-05
               9.6469721173377671E-04
               8.2080007447220662E-04
              -8.5963782369962837E-04
               1.4708709209113372E-03
              -3.9386711576640211E-04
              -9.0760988854235165E-04
               1.9400661585214815E-04
               3.0646009935402749E-04
              -9.7594752089804010E-06
              -2.4266255679434895E-04
               5.8495747106227034E-04
               1.3947691304518138E-04
               1.3130921551184147E-04
               1.0835716892832921E-03
               7.0771009877992040E-04
              -2.0785897248267897E-04
              -2.6297835028270543E-04
              -6.2615953222729614E-04
               5.3030908012684762E-05
              -9.7933658835015975E-05
              -1.5411611262590140E-04
               2.7736385751758730E-04
              -2.1796283334921156E-04
               3.4139432899627734E-04
              -2.6690637515127964E-04
               6.6047308748803186E-04
               2.8809307991798961E-04
               3.4518657477826357E-05
              -6.5998822361614104E-04
              -7.1021716917588334E-04
               3.9010687908896035E-04
               8.6122094498641822E-04
              -4.3740643553897565E-04
              -9.2614318490242696E-04
               1.3606934925986007E-04
               9.5423873677473372E-04
               3.9561791328447573E-04
               2.5473497575637474E-04
              -1.3742598594128466E-04
              -2.8922559767406030E-05
               6.9443677774951582E-04
              -5.7340119963627395E-04
              -2.8690688800317877E-04
              -2.0810060984252415E-04
               8.9597040853423503E-04
               1.9396767581832529E-04
               1.9747110750819030E-03
               6.0053977868699062E-05
               7.0276764360096351E-04
              -7.5860861892329610E-06
               8.6508863700812178E-04
              -3.1597739063544416E-06
               5.7925729037830930E-05
              -4.4550982525000567E-05
              -1.5416094891531173E-04
               1.5355358006156897E-04
               4.3765469652747870E-04
              -6.4882042340534923E-04
               1.7867258136009548E-04
              -5.8737063704138658E-04
               1.5233437252797367E-04
               5.2640744823818789E-05
              -4.7307220946741086E-04
               1.6491894163352398E-05
              -7.8520268394806803E-04
              -2.1205077178627300E-04
              -8.4268169838767676E-04
               4.7241317022050130E-04
              -7.9234382421626722E-04
              -4.3451086588740901E-04
              -3.2699900314200761E-04
              -1.4723716715993746E-04
              -8.3339814988039711E-05
              -7.8656509405342794E-04
               2.7054807998816324E-04
              -5.3497146433504066E-04
               4.6166985027962472E-03
              -8.5351910921908588E-04
               2.0777364930789742E-04
              -1.0528314777469858E-04
               1.3356647120992961E-04
               1.1610402928806339E-03
               7.6828655272733468E-04
              -8.4999821916152641E-04
              -5.2142494757524292E-04
              -3.6831695915146056E-04
              -2.9586426528555867E-05
               4.7937470764793804E-04
               8.0667055323906827E-04
               1.3854393331403064E-03
               1.8623373657782191E-04
              -8.0324260180243912E-05
              -5.2360070397341595E-04
              -4.2224203134863579E-04
               1.0754011613743660E-03
              -7.3192812965312921E-05
               3.3344435222073230E-04
         &END THERMOSTAT_ENERGY
         &RNG_INIT
Wiener process for Thermostat # 1        1 F T T   2.7563523278327163E-02         213983671.0        2117561664.0         885164838.0         745121423.0        4195472957.0        3329465076.0             12345.0             12345.0             12345.0             12345.0             12345.0             12345.0             12345.0             12345.0             12345.0             12345.0             12345.0             12345.0
Wiener process for Thermostat # 2        1 F T T  -1.0266453391354788E+00        2641787639.0         778638368.0        3609323262.0        3807470679.0        4237593839.0        1210015206.0        3692455944.0        1366884236.0        2968912127.0         335948734.0        4161675175.0         475798818.0        3692455944.0        1366884236.0        2968912127.0         335948734.0        4161675175.0         475798818.0
Wiener process for Thermostat # 3        1 F T T  -8.9530240122203708E-01         815915307.0        2699555328.0         556665195.0         277027758.0        1325791527.0         781955335.0        1015873554.0        1310354410.0        2249465273.0         994084013.0        2912484720.0        3876682925.0        1015873554.0        1310354410.0        2249465273.0         994084013.0        2912484720.0        3876682925.0
Wiener process for Thermostat # 4        1 F T T   1.0141057934897981E+00        2614539177.0         790973925.0        3214237628.0         109962182.0        1436365179.0        3636877983.0        2338701263.0        1119171942.0        2570676563.0         317077452.0        3194180850.0         618832124.0        2338701263.0        1119171942.0        2570676563.0         317077452.0        3194180850.0         618832124.0
Wiener process for Thermostat # 5        1 F T T   1.1710196585928661E+00        3193053130.0         124908876.0        3109156941.0        3559309655.0         860090188.0        3274967979.0        1597262096.0        3906379055.0        3312112953.0        1016013135.0        4099474108.0         275305423.0        1597262096.0        3906379055.0        3312112953.0        1016013135.0        4099474108.0         275305423.0
Wiener process for Thermostat # 6        1 F T T   2.2692066785706531E+00        3233714131.0        1788094629.0        2773421424.0         493589796.0        3495899448.0        2184815348.0          97147054.0        3131372450.0         829345164.0        3691032523.0        3006063034.0        4259826321.0          97147054.0        3131372450.0         829345164.0        3691032523.0        3006063034.0        4259826321.0
Wiener process for Thermostat # 7        1 F T T  -2.1178078880486955E+00        3215783786.0        2039261296.0        2800566386.0        1980168846.0         591149703.0        2051589468.0         796079799.0        2105258207.0         955365076.0        2923159030.0        4116632677.0        3067683584.0         796079799.0        2105258207.0         955365076.0        2923159030.0        4116632677.0        3067683584.0
Wiener process for Thermostat # 8        1 F T T  -3.4486428258451912E-01        2164382047.0        3759860013.0        3797865906.0        2773237388.0        3664302846.0        1239392786.0        3281794178.0        2616230133.0        1457051261.0        2762791137.0        2480527362.0        2282316169.0        3281794178.0        2616230133.0        1457051261.0        2762791137.0        2480527362.0        2282316169.0
Wiener process for Thermostat # 9        1 F T T  -5.1417441613074955E-01        2614136561.0        3189551690.0        2803376152.0        3623378815.0        1206184855.0        2899204540.0        3777646647.0        1837464056.0        4204654757.0         664239048.0        4190510072.0        2959195122.0        3777646647.0        1837464056.0        4204654757.0         664239048.0        4190510072.0        2959195122.0
Wiener process for Thermostat # 10       1 F T T   1.5100054231731939E+00        1887628084.0         458221621.0         462195617.0        1754669363.0        1874990286.0        1975231173.0        4215590817.0        3862461878.0        1087200967.0        1544910132.0         936383720.0        1611370123.0        4215590817.0        3862461878.0        1087200967.0        1544910132.0         936383720.0        1611370123.0
Wiener process for Thermostat # 11       1 F T T  -2.0979428587940765E+00        2153916400.0        1524216486.0        2099095878.0        3954177949.0           6694115.0        2778906549.0        1683636369.0         362165168.0         814316280.0         869382050.0         980203903.0        2062101717.0        1683636369.0         362165168.0         814316280.0         869382050.0         980203903.0        2062101717.0
Wiener process for Thermostat # 12       1 F T T  -1.0301863229109454E+00        3179243730.0        2891014181.0        3259393144.0        2964969900.0        1457630181.0        2225088402.0         272317999.0         166758548.0         310112982.0         201045826.0        1680231254.0         118290799.0         272317999.0         166758548.0         310112982.0         201045826.0        1680231254.0         118290799.0
Wiener process for Thermostat # 13       1 F T T   8.8324751407336066E-01        1126484719.0        3075044696.0         865309459.0        1229787443.0        3626294897.0        3697987765.0        2245755202.0        1652682525.0        2865544364.0         721509566.0         209733568.0         592362218.0        2245755202.0        1652682525.0        2865544364.0         721509566.0         209733568.0         592362218.0