 # Version information for this restart file 
 # current date 2024-12-02 01:35:39.483
 # current working dir /scratch/work/courses/CHEM-GA-2671-2024fa/students/mr6966/comp-lab-class-2024-MR/Week12-IntroAIMD/Runs/Protons
 # Program compiled at                              Sat Dec 12 18:27:15 EST 2020
 # Program compiled on                                         cs001.nyu.cluster
 # Program compiled for                                                nyu-intel
 # Source code revision number                                       git:8c64c6e
 &GLOBAL
   PRINT_LEVEL  LOW
   PROJECT_NAME water_aimd_1ns_every0.5fs
   RUN_TYPE  MD
   WALLTIME 21600
 &END GLOBAL
 &MOTION
   &GEO_OPT
     OPTIMIZER  BFGS
     MAX_ITER  100
     MAX_DR     3.0000000000000001E-03
     &BFGS
     &END BFGS
   &END GEO_OPT
   &MD
     ENSEMBLE  NVT
     STEPS  2000
     TIMESTEP     4.9999999999999994E-01
     STEP_START_VAL  1999
     TIME_START_VAL     9.9949999999998238E+02
     ECONS_START_VAL    -1.1026470025575584E+03
     TEMPERATURE     3.0000000000000000E+02
     &THERMOSTAT
       TYPE  GLE
       REGION  MASSIVE
       &GLE
         NDIM  5
         A_SCALE     1.0000000000000000E+00
         A_LIST     1.8595758612559999E+02    2.7263853498399998E-01    1.1526100454610001E+01   -3.6414578262600003E+01 \
             2.3173375816020001E+02
         A_LIST    -2.7809524712060002E-01    8.5951591808710006E-05    7.2189048017650004E-01   -1.9844539343859999E-01 \
             4.2409257583420001E-01
         A_LIST    -1.4825808131210000E+01   -7.2189048017650004E-01    1.3590902121280000E+00    5.1498896280349999E+00 \
            -9.9949268450990001E+00
         A_LIST    -1.0372189126880000E+01    1.9844539343859999E-01   -5.1498896280349999E+00    2.6661910891169999E+01 \
             1.1507715495310000E+01
         A_LIST     2.1801346360420001E+02   -4.2409257583420001E-01    9.9949268450990001E+00   -1.1507715495310000E+01 \
             3.0958394565589998E+02
         &THERMOSTAT_ENERGY
               2.0838278494494031E-03
              -2.0250083681882408E-03
              -7.8398159223080320E-03
               3.4183092158289333E-04
              -1.2033607105986634E-02
               6.0533324646177807E-03
               1.6912155414655516E-04
               3.8842346739377141E-03
               4.6486166622837525E-03
              -3.7124737189752325E-04
               1.0282506062660830E-02
               1.0569422687289850E-03
              -6.5324082325553361E-03
              -4.9997708594802783E-03
               3.9829511824050210E-03
               4.5902305494595168E-03
               4.7832239775082112E-03
              -7.2175518020655277E-03
               3.1286723095812641E-03
              -2.1594398433563704E-03
              -3.2143419896788466E-03
               1.1034939461359219E-02
              -1.4212367996332850E-02
              -5.4958582294256557E-03
               2.4297118476873793E-03
              -7.4868050033872740E-03
               8.3499742250779836E-03
              -1.3559829320849302E-03
               5.1385192801553722E-03
               4.2782104470269673E-06
               3.3398045318504322E-03
               8.6488832735102754E-04
              -3.1190256245643196E-03
               2.2608736593636783E-03
              -1.6440878495783573E-02
               1.7575500632102548E-02
               7.1578903226660322E-04
              -1.6696987828506951E-03
              -3.5180077803342882E-03
               3.8307992154351905E-05
               4.7239441224764412E-03
              -5.6085715317123769E-03
               3.3876050813505588E-03
              -2.2650266112815548E-04
               4.4900582313527242E-03
               3.6934942809270666E-03
              -6.8935465333016064E-03
               1.2256010369121126E-02
               3.4685854099549647E-03
               8.3376034500228929E-03
               2.0113633844730809E-03
              -9.2013334667579458E-04
              -5.4989552177656690E-03
               9.2669270827390130E-03
              -8.6417186069859021E-03
               1.1041092057813933E-03
              -2.8447214113145117E-06
              -1.6811039531078561E-03
               3.8761917950746183E-03
               7.9391725019555479E-03
              -1.4673796432733280E-03
               3.8352599603755030E-04
               8.0285195215910286E-03
              -3.6829462836890316E-04
              -1.5989648662852361E-03
              -1.4373891272385347E-03
              -4.2461786800076515E-03
               3.3420530174196037E-03
               1.7001923356221808E-02
               1.4041923955562073E-04
              -9.0745967255334136E-03
              -8.1030275757227113E-03
              -6.3751111005994430E-03
               1.1341223748002715E-03
              -2.9558651065293138E-03
              -1.1771950314697053E-02
               1.2846778527844393E-02
               2.0204931258084785E-02
               4.9841863602594237E-03
              -8.8350196869639384E-03
              -2.5726983967420732E-03
              -9.1796243572408003E-03
               6.1757520239118331E-03
               3.1211853077349217E-04
              -4.1023121876267708E-05
               5.5145308182174904E-03
               2.6687461841938309E-04
              -4.6762714442648004E-03
               9.2796674904735595E-04
              -5.1405859787471923E-03
               2.3914959527297852E-03
              -4.3027285391279606E-03
               5.1438535109788394E-03
              -6.7932435650214819E-03
              -1.2764289914707029E-02
               2.9201105687097551E-03
               4.6448295130144847E-03
               2.9906499671878395E-03
               3.9594730983626095E-03
              -1.3377539469180552E-03
              -2.7580041021209520E-03
              -8.9491099411001373E-03
              -2.0352223083869320E-03
              -4.7265818275004316E-03
               8.3722456081942193E-03
               1.0574768460437525E-02
               1.7873531880674227E-03
              -4.0697740930960014E-03
               6.7453083772580193E-03
              -7.2453961493238218E-03
              -4.5609480858288569E-04
               4.9799392281773235E-03
               1.1113276275896309E-03
               4.6831646328845955E-03
               1.0286110136914975E-02
              -7.6422896347687645E-03
              -9.6102547731214960E-03
              -3.7927643731587263E-03
               7.4922696535226832E-03
               8.7366567375971147E-05
               2.3051249192807396E-03
               4.6658804849089287E-04
               9.6076162247267453E-03
               8.7446889852957018E-04
              -9.1970667214076943E-03
              -1.6688041815190454E-02
               9.4967089273755110E-03
               3.9078114542264696E-03
              -6.4051112352874113E-04
               5.5183345834444349E-03
              -4.6073135090875681E-03
              -1.1398882540118501E-03
               4.1907279873101277E-03
               4.6307597628373349E-03
              -7.8723896991817945E-03
               3.2937498378140355E-03
              -4.9498875164178252E-03
              -9.1606388667070850E-03
              -3.3442904778084497E-03
               1.8136025913784587E-03
               4.9179163762491413E-04
               1.1778382463826152E-02
               8.7603070378053233E-03
              -6.8478899022713655E-03
              -4.9268626706618175E-03
              -5.4068055364504585E-03
               1.3366312289372242E-03
              -1.2469933377924427E-03
              -2.3474759354196136E-03
              -4.3923038613535017E-03
              -1.4245461937751242E-02
               5.9549158667523503E-03
               2.4772795419556498E-03
              -3.8993226670507716E-03
               1.7592934168574909E-03
              -2.4982580785444398E-03
               7.6012291308071803E-03
               2.4408248878197473E-03
              -5.2610330066538485E-03
               2.8650429352623588E-03
              -9.9271819654610117E-03
               1.8050197288207097E-03
              -2.2425544959299723E-03
              -3.3371465611982349E-04
               2.1530553310197841E-02
               2.2271448033732686E-02
               5.2264621101959631E-04
              -2.3869886673785264E-02
              -6.9394646466212568E-03
               6.5213263171512393E-04
              -5.0278768907237497E-03
              -8.6336991287189440E-04
              -6.0023472272806733E-04
              -3.0479355401076343E-03
              -5.6548532432171891E-03
              -2.6100568355799002E-04
               2.5895615201355156E-03
              -8.6408403689260567E-03
               1.2429497375826035E-02
               6.8033765228469071E-03
               2.4188318577345849E-03
              -5.0128398224197519E-05
               2.4290881504979473E-03
              -1.3146068255588509E-02
               1.2650540093529313E-02
              -1.0344797756002915E-03
              -4.0010022785623815E-03
              -9.6077644868563627E-04
              -1.0536516015475738E-02
               2.9363832066022200E-03
              -4.1554964640575153E-03
              -9.1962393301685404E-04
              -9.2305502399938084E-03
               9.9592222941348452E-03
               1.0354931198297047E-02
              -7.0620091647119517E-03
              -9.3298727150200331E-04
               9.7942719710741448E-05
              -4.2310044069757361E-03
               6.6426090942746407E-04
              -2.4407833042651237E-03
              -5.0777709118346153E-03
               1.0423932701394546E-03
              -1.1559783905168400E-03
              -6.2954120901131407E-04
               2.3983234974563434E-03
               1.5115005482776959E-03
               1.4518049248089808E-03
               4.4272991545349031E-03
               2.7711224798951154E-03
               7.2696179210155892E-03
              -8.3887538709604813E-03
               1.0024699793187498E-02
               3.9258474612739796E-03
              -9.5884824531176601E-04
               1.9088235155158787E-03
              -1.0079820231308210E-02
              -4.0704951406046481E-03
               1.4254421911136600E-04
              -1.4466185160723446E-03
              -7.8477192887207070E-04
              -8.5728929164326853E-03
               1.8480807561883629E-04
               2.1990755113875716E-03
               4.2175143542603098E-03
               2.5018976874621908E-05
              -1.6078956112502906E-03
               5.2715259887707224E-03
              -8.9972965767796276E-03
              -5.1910915473734436E-03
              -6.6811940519365563E-03
               1.4413185808868358E-03
               1.1424468688195360E-02
              -1.2007867567052509E-05
              -6.7768986674760791E-04
              -4.1093226088562184E-04
              -1.6953665373440423E-03
              -8.4743670155820153E-04
               3.8444625722344164E-03
               1.0280582377573259E-02
               4.4241066795715628E-03
              -8.4987237211000457E-03
              -2.0989698540233755E-03
              -4.5466947308962918E-03
               1.3179865227336740E-04
               2.2702969346727704E-03
               3.4782599629995447E-03
              -1.7311220244683831E-03
               3.0970510062915931E-03
              -1.2529835517122109E-03
              -7.2137025406958152E-03
              -2.2100528229199385E-04
              -4.0858319636504405E-03
              -6.3780775051637409E-03
               4.7836722568010944E-03
               2.7890720421523047E-03
               1.6395425723125089E-02
              -5.5364076028976243E-03
               1.2355471445088841E-02
              -2.8861663905473907E-02
               2.5863943947611420E-02
               1.8909179640187710E-03
               2.9443627492810515E-03
               9.3307618324273388E-03
               5.9149227279068888E-03
              -1.2504221819719911E-02
               4.6286309346313132E-03
              -9.0363928555075614E-03
               2.8739047889153515E-03
               1.5560200942643763E-02
               7.8916678685752564E-04
              -7.9279533689166504E-03
               1.7168563451001474E-03
               1.2328268246409224E-02
              -1.5918193293997264E-03
              -3.3426734686526781E-04
              -2.0927766249715710E-02
               1.6019808235538308E-02
              -8.5203768915999879E-03
               4.6435083998186922E-03
              -3.9440883925084356E-03
               5.9021780960777726E-03
              -5.8861451845467058E-03
               9.9126567820093580E-04
               3.8355078236374848E-03
               3.9584463038467264E-03
               2.7424097684641876E-03
              -6.9839794869722242E-03
              -2.4517560961543772E-03
               6.0936945596147853E-03
              -4.0933931594712520E-03
              -2.9803533145514962E-03
               1.2556119552265064E-04
              -3.2055153772802235E-03
              -5.5608092134635072E-03
               1.0198090151164465E-02
              -8.0190371995799078E-03
              -3.1259359306168191E-03
              -8.4070854943518181E-03
              -8.6438466049318097E-03
              -3.2853790436873143E-03
               7.5040863504226493E-03
               1.0227176988429492E-02
              -1.8846229690535144E-03
               1.7456758505651877E-02
              -1.2837978770459779E-02
              -8.0085229790801873E-03
               2.2266053323112013E-04
               7.6872622493257617E-03
               1.4717471114814556E-02
              -4.1342112361357555E-03
              -1.9734563251083463E-02
              -8.2716334502845306E-03
               2.0204884631900660E-02
              -3.7513235144404381E-03
               5.1305222671975568E-03
               6.9714366134943622E-03
               4.9662135356641458E-04
              -1.1304900465058450E-03
              -2.9098760178232954E-03
               8.7225918158882268E-03
              -1.9742797359579352E-02
              -7.1530640113392592E-03
               9.9116781406903658E-03
              -4.0500838512781568E-03
               9.5138091255386539E-03
              -1.6931321426380071E-03
               1.2465644504476342E-03
              -3.1645068644426937E-03
              -5.3371637232856152E-03
               3.3265704926575520E-03
              -1.4398904518977483E-02
               9.9101275780206933E-03
              -4.9299261183692209E-03
               2.0166406399600447E-03
              -7.5264935532509843E-04
               8.1964000719444395E-03
               2.4520226569123486E-03
              -1.2885735362339360E-02
               8.8722701776921768E-03
              -2.1121671682295777E-03
               7.1829173035151787E-03
               3.7312712712577376E-03
              -5.4440755390056488E-03
              -3.7524588518687309E-04
              -1.9641301088569488E-03
               6.5351709120542436E-03
               4.5259898607061727E-04
              -4.9385867282578898E-03
              -1.6338086929620548E-03
               5.5454755956450656E-03
               1.0334363944778199E-02
              -8.1940064177452726E-03
              -6.3375585531570324E-03
              -9.4912303470216230E-03
               8.8593057675746927E-03
               9.8378820177547717E-04
              -1.3786213293047717E-02
              -8.8437122019085039E-03
               1.4076029882845802E-02
              -4.0241266224812292E-03
              -1.3699697828161116E-03
              -1.0977731352663210E-02
              -3.5309075217539562E-03
              -6.0472164721586891E-03
               1.6188763511162999E-02
               6.3571613147190972E-03
              -5.1212434453973736E-03
              -5.1467780171696263E-03
              -7.5631245150393185E-03
               5.5677737314017168E-03
               9.6913123033237646E-04
               2.8188462353497807E-03
               2.4826974133643242E-04
              -4.3354383241054149E-03
              -6.3297853927293975E-04
               1.8528544176140760E-03
              -7.9268399747160437E-03
               1.2421218982975316E-04
               1.0317799980020734E-03
              -5.7971712472149452E-04
               1.0886564280175447E-02
               1.5809927822038803E-02
              -1.6175817762690396E-02
              -2.0520708275510568E-02
               8.7032224150556323E-03
              -3.2069594255767971E-04
               9.5558558959775138E-04
               4.0647654965745459E-03
              -1.3526919289916120E-03
              -1.1865234258744527E-04
               1.2525878196589452E-03
               6.0573251820592996E-03
              -3.7238792018666395E-03
              -3.4756765881770518E-03
               3.0002037637703437E-03
              -9.8220666587185944E-03
               2.4605021664587906E-03
               2.2963954620793805E-03
              -2.9494337716274837E-02
               1.1209516533976081E-02
               9.6049164702704595E-03
              -1.1623183806099266E-02
               4.0483800185069597E-03
               1.8720664167276909E-02
              -4.4290578087991736E-03
               2.8207912093679553E-03
               6.6267208503631506E-03
              -1.2495646521374106E-02
               1.0576174410150539E-02
               2.2403979023809977E-04
               1.2372943961449733E-02
              -1.1601632896883214E-04
               6.9126081585271972E-03
               2.0963926178597985E-04
               5.5235116372173206E-03
              -3.6255400922307609E-04
              -1.4428763699383999E-02
               3.1331823535234592E-03
              -5.9057392727808068E-03
               2.9156321384430717E-04
              -1.1200487964154392E-02
               1.2765904810742793E-03
               1.2719986272657833E-02
               2.5631223475628996E-02
               9.8478923366136228E-03
               9.6343118675224597E-03
              -5.5173779181435286E-04
               8.6936359513079420E-03
               3.1304507113033543E-02
               5.6254770275240415E-03
              -4.5047495166649128E-03
               4.9157295834027101E-02
               2.6550110800248189E-02
               2.1573505408433169E-02
               2.1005701206124137E-03
               2.6323039796899614E-03
              -1.4805733343384827E-03
               1.9036789925336933E-03
              -3.6883732783168735E-03
              -4.2530928511001946E-03
              -2.8219386081849529E-03
              -6.5692144345534534E-03
               1.1298754727937243E-02
               4.1833939191668829E-03
               8.4786217596984677E-03
               2.6260182917196400E-04
               7.6518748634242803E-03
               5.1711361373430742E-03
              -4.4030983525307653E-03
              -2.0405828059948936E-03
              -7.9049012334805775E-03
               7.1964436725705941E-03
               1.8308332466211359E-03
              -4.9004434812409468E-04
              -8.1206591009164875E-03
              -1.6457893595838271E-03
               3.7553506070555354E-03
              -9.8726136605641873E-03
              -7.0895190906888911E-03
               1.0223669409590694E-02
               9.4413502707711254E-03
              -2.1042812878147186E-03
               1.1778235713464047E-04
               3.4810542598521033E-03
              -3.3241334428913381E-03
              -4.4678640960785368E-03
              -2.4054547251737538E-05
               1.6312537055124633E-02
              -9.2618643928446300E-03
              -1.6105613270537729E-03
              -4.7149444445072075E-03
               5.8498432313473150E-03
              -3.2642578188501140E-03
              -3.4882085987594240E-03
               1.4985274737936776E-02
              -2.7068871873948844E-04
               1.2112032621035895E-02
               2.7645119226985275E-04
               1.9732174966885746E-03
               2.5032381575469938E-03
              -4.4496319607182895E-03
              -6.5776851002696140E-04
               1.6383365953422466E-03
              -1.7009805067655041E-03
               3.3475507417203192E-03
               7.0854876632279410E-03
              -2.2323204506297469E-03
               2.8750967316306490E-03
              -5.3644845075361564E-03
               5.2169599446487943E-03
               5.3309157961500975E-03
              -4.0231683706574654E-03
              -6.4097591541338950E-03
              -2.1487613942103431E-04
              -1.8748758717678155E-03
               8.3331264181884593E-03
               1.0257900554906768E-02
              -4.5939959781506480E-04
               6.3363344474073333E-03
               4.0028318354477042E-03
               6.7605603180063614E-03
              -1.6892562118615020E-02
               1.6103975525874340E-02
               3.5776884197536063E-03
              -1.6985808438137611E-02
              -5.5831287507571484E-04
               2.0075725594535286E-03
               6.1605618084176784E-03
              -3.4006833376823966E-03
               2.1555313879884626E-03
               8.1060877800071800E-03
              -1.1038651749231531E-02
              -7.0134184320329489E-03
               1.1969472504579247E-02
              -1.5374644080945476E-02
              -6.1671911779879679E-03
               6.7688199967381926E-03
               1.5001743863201128E-03
               1.0134831310508758E-02
              -8.6826515137007881E-03
              -5.4678261388546910E-03
              -9.5895672886657599E-04
               7.0940432919270541E-03
               1.2657967921231904E-03
               7.1888551508834421E-03
               2.8804897751998765E-03
              -7.5218327936115627E-03
               8.6434146350034564E-03
               6.8614037432969590E-03
              -4.5497281507445144E-03
               2.5846461826557424E-02
              -2.5576275769287984E-03
              -3.5378565351765973E-03
              -6.6347597161093056E-04
               5.9790348023997545E-03
               5.1145799210293007E-03
               9.6500426295818170E-04
               5.6745538348213177E-03
               8.3677197139028752E-03
               2.3395168956633649E-03
               4.6344943464403897E-03
              -2.7583657920084268E-03
               6.6096385945859214E-03
               1.0188075984314177E-02
              -2.1009710505257928E-03
               2.9899359640688226E-03
               5.1995667443065904E-03
               2.1158632478432650E-03
               8.7956926088953880E-03
              -6.0118539424209904E-03
              -4.6089369835772120E-03
              -3.2027913238386928E-03
              -4.9874696095991104E-03
               1.5238523613755810E-03
               1.7747353242778545E-03
               3.5359217047867568E-03
               3.3817538173447769E-03
               1.5683773722800533E-02
              -2.8091263639865639E-03
               9.1549712223377693E-03
              -6.8626419582639938E-04
               2.5195006485644643E-03
               1.8458741924368711E-03
              -1.1590550133605784E-02
               3.7516943043119245E-03
              -4.9221454508626443E-03
               2.0831364766548425E-03
               2.5515441073830553E-03
              -1.4703769454670992E-03
              -3.1934275054660054E-03
              -4.1480584824842067E-03
              -2.4350651151849654E-03
              -1.7532058617612173E-02
               5.4744709025195126E-03
               1.2803318469178071E-02
               1.2009588228689312E-02
              -5.4450449957914732E-03
               3.0022487053743283E-03
         &END THERMOSTAT_ENERGY
         &RNG_INIT
Wiener process for Thermostat # 1        1 F T T  -1.3877964172148927E+00        3819968671.0        1923139303.0        2505174482.0        1129753110.0        1102497896.0        2318485114.0             12345.0             12345.0             12345.0             12345.0             12345.0             12345.0             12345.0             12345.0             12345.0             12345.0             12345.0             12345.0
Wiener process for Thermostat # 2        1 F T T   5.9690975612399577E-01        1863048650.0        1167059563.0        4156553466.0        2659491592.0        2500563110.0        2967422577.0        3692455944.0        1366884236.0        2968912127.0         335948734.0        4161675175.0         475798818.0        3692455944.0        1366884236.0        2968912127.0         335948734.0        4161675175.0         475798818.0
Wiener process for Thermostat # 3        1 F T T  -1.9577134425325560E-01        2029679022.0        1992813296.0        1475024831.0        3744841000.0        4231717232.0        1872789393.0        1015873554.0        1310354410.0        2249465273.0         994084013.0        2912484720.0        3876682925.0        1015873554.0        1310354410.0        2249465273.0         994084013.0        2912484720.0        3876682925.0
Wiener process for Thermostat # 4        1 F T T  -5.5423907268054418E-01         972191078.0        3239779000.0        2283144792.0        4029872124.0        2868550739.0         388907277.0        2338701263.0        1119171942.0        2570676563.0         317077452.0        3194180850.0         618832124.0        2338701263.0        1119171942.0        2570676563.0         317077452.0        3194180850.0         618832124.0
Wiener process for Thermostat # 5        1 F T T  -3.6874052824979625E-01         246061856.0        2033992607.0        4208640487.0        3425480013.0        1713937449.0        3033523858.0        1597262096.0        3906379055.0        3312112953.0        1016013135.0        4099474108.0         275305423.0        1597262096.0        3906379055.0        3312112953.0        1016013135.0        4099474108.0         275305423.0
Wiener process for Thermostat # 6        1 F T T   5.7875332706651861E-01        4268450248.0        1240555256.0        2123119467.0         299173953.0        2368881629.0        2698044585.0          97147054.0        3131372450.0         829345164.0        3691032523.0        3006063034.0        4259826321.0          97147054.0        3131372450.0         829345164.0        3691032523.0        3006063034.0        4259826321.0
Wiener process for Thermostat # 7        1 F T T  -1.8983145396195047E+00        4260312323.0         705196258.0         937296972.0        1373994383.0        3179698350.0        3757299263.0         796079799.0        2105258207.0         955365076.0        2923159030.0        4116632677.0        3067683584.0         796079799.0        2105258207.0         955365076.0        2923159030.0        4116632677.0        3067683584.0
Wiener process for Thermostat # 8        1 F T T  -3.3116685260855833E-01        2351531572.0        3477839446.0        1021048571.0        1975906828.0        1893564842.0         777663015.0        3281794178.0        2616230133.0        1457051261.0        2762791137.0        2480527362.0        2282316169.0        3281794178.0        2616230133.0        1457051261.0        2762791137.0        2480527362.0        2282316169.0
Wiener process for Thermostat # 9        1 F T T   1.4386427466100791E+00        3265425123.0        2999969280.0        3048908474.0        1047403656.0         134736569.0        4209884843.0        3777646647.0        1837464056.0        4204654757.0         664239048.0        4190510072.0        2959195122.0        3777646647.0        1837464056.0        4204654757.0         664239048.0        4190510072.0        2959195122.0
Wiener process for Thermostat # 10       1 F T T  -2.3947144259907721E-01        2825100143.0        2025717467.0        3827127036.0        1422979577.0        1026966836.0        1481957392.0        4215590817.0        3862461878.0        1087200967.0        1544910132.0         936383720.0        1611370123.0        4215590817.0        3862461878.0        1087200967.0        1544910132.0         936383720.0        1611370123.0
Wiener process for Thermostat # 11       1 F T T   2.8146058156813852E-01        3161233422.0        2404453347.0        1673723662.0         906337025.0          73303549.0        1016746719.0        1683636369.0         362165168.0         814316280.0         869382050.0         980203903.0        2062101717.0        1683636369.0         362165168.0         814316280.0         869382050.0         980203903.0        2062101717.0
Wiener process for Thermostat # 12       1 F T T  -6.6211933450441895E-01         208754144.0        1983222026.0        1378772639.0         460703296.0         651350573.0        3898252829.0         272317999.0         166758548.0         310112982.0         201045826.0        1680231254.0         118290799.0         272317999.0         166758548.0         310112982.0         201045826.0        1680231254.0         118290799.0
Wiener process for Thermostat # 13       1 F T T   2.2418582236869027E-02         545702192.0         878923556.0         464381839.0        1267067492.0        3004786620.0        2258194530.0        2245755202.0        1652682525.0        2865544364.0         721509566.0         209733568.0         592362218.0        2245755202.0        1652682525.0        2865544364.0         721509566.0         209733568.0         592362218.0