 # Version information for this restart file 
 # current date 2024-12-01 21:08:38.318
 # current working dir /scratch/work/courses/CHEM-GA-2671-2024fa/students/mr6966/comp-lab-class-2024-MR/Week12-IntroAIMD/Runs/Protons
 # Program compiled at                              Sat Dec 12 18:27:15 EST 2020
 # Program compiled on                                         cs001.nyu.cluster
 # Program compiled for                                                nyu-intel
 # Source code revision number                                       git:8c64c6e
 &GLOBAL
   PRINT_LEVEL  LOW
   PROJECT_NAME water_aimd_1ns_every0.5fs
   RUN_TYPE  MD
   WALLTIME 21600
 &END GLOBAL
 &MOTION
   &GEO_OPT
     OPTIMIZER  BFGS
     MAX_ITER  100
     MAX_DR     3.0000000000000001E-03
     &BFGS
     &END BFGS
   &END GEO_OPT
   &MD
     ENSEMBLE  NVT
     STEPS  2000
     TIMESTEP     4.9999999999999994E-01
     STEP_START_VAL  10
     TIME_START_VAL     4.9999999999999982E+00
     ECONS_START_VAL    -1.1026470025575584E+03
     TEMPERATURE     3.0000000000000000E+02
     &THERMOSTAT
       TYPE  GLE
       REGION  MASSIVE
       &GLE
         NDIM  5
         A_SCALE     1.0000000000000000E+00
         A_LIST     1.8595758612559999E+02    2.7263853498399998E-01    1.1526100454610001E+01   -3.6414578262600003E+01 \
             2.3173375816020001E+02
         A_LIST    -2.7809524712060002E-01    8.5951591808710006E-05    7.2189048017650004E-01   -1.9844539343859999E-01 \
             4.2409257583420001E-01
         A_LIST    -1.4825808131210000E+01   -7.2189048017650004E-01    1.3590902121280000E+00    5.1498896280349999E+00 \
            -9.9949268450990001E+00
         A_LIST    -1.0372189126880000E+01    1.9844539343859999E-01   -5.1498896280349999E+00    2.6661910891169999E+01 \
             1.1507715495310000E+01
         A_LIST     2.1801346360420001E+02   -4.2409257583420001E-01    9.9949268450990001E+00   -1.1507715495310000E+01 \
             3.0958394565589998E+02
         &THERMOSTAT_ENERGY
              -1.4517053673063882E-03
               3.5442321810078719E-04
              -7.9955696211139011E-04
              -1.2109834319113349E-03
              -1.0893528879281155E-04
              -6.2966794656233588E-04
              -4.5691830271019508E-04
               7.5858485942620932E-05
              -9.1977335519183149E-04
              -1.6162156169852303E-03
              -3.0202549376407936E-04
              -3.0191941664940367E-04
               9.5465645648039256E-04
              -1.4645345539593066E-04
               1.1675934456811777E-04
               3.3033469768826006E-05
              -1.0510546714543180E-04
               4.8366169172823527E-05
              -3.4782178941640378E-04
              -9.3061256166925683E-04
               2.0659431797346846E-04
               1.7425408307457603E-03
               4.0303805589866486E-04
              -2.4480111547908810E-04
               7.1299455117862135E-05
              -1.2568564369120877E-03
               6.3303641657041869E-04
              -3.7681783727861590E-04
               4.7713547413721935E-04
               6.0331138647136499E-05
              -8.9272299098056441E-04
              -1.8044098291819871E-03
              -1.9249324344704124E-03
               5.3064137441221550E-05
              -3.9610020003341304E-05
              -7.5618348723754334E-05
              -2.6201471004709141E-04
               8.5734916060180256E-05
               4.4649366733194714E-04
              -5.0669728737371984E-04
              -1.2865886558704133E-03
               1.4749817520692222E-04
              -1.8977549139502596E-03
               7.4260435732771397E-04
              -1.1411122756419415E-03
               1.6572170052624607E-03
              -7.0098179228906231E-05
               2.9248324981412448E-04
               8.2141857696711707E-04
              -4.7030496719326932E-04
              -3.5375778672473766E-04
               1.4495109445412984E-04
              -2.5499435932230225E-04
               6.6429787440289389E-05
              -1.6456196105455129E-03
              -3.2941303496187527E-06
              -5.8455881119440808E-04
              -3.1107628561677559E-05
               3.7270513879735531E-04
              -2.4281311263552700E-03
              -7.8428689766028511E-04
               1.1014076066046092E-03
               6.2030725490318304E-04
               1.0061198337381380E-03
              -1.9484069226043794E-04
               2.3261451808568993E-04
               6.3466880000880488E-04
               1.7895968086389371E-04
              -5.0463545679327760E-04
               6.6908722268018133E-04
              -9.3669409033132246E-04
               1.1501044396693325E-03
              -7.4717190015770156E-04
               2.5020768324140921E-04
              -9.1437824116722484E-04
               8.8085390300965795E-04
              -5.9083195280625305E-05
               1.0894206988052233E-03
               3.4033384486444290E-04
               4.0815338593050573E-04
               4.5206505579564197E-05
               4.0612036289748831E-05
              -1.1918116785071122E-05
              -4.6461001033286939E-04
               1.0216421940677906E-03
              -9.1943136280410280E-05
              -4.0657714425194327E-04
               6.3961771425208942E-04
               5.4433360839916336E-05
              -6.8385433449902832E-04
               9.6383610874143982E-05
              -6.1443436491837033E-04
               3.7141549509183628E-04
              -1.1389104732375578E-03
               6.1527563130955832E-04
              -2.8429980010946144E-04
              -1.9206004494070342E-04
              -3.0314417026111378E-04
               6.6542134615955417E-04
              -1.8730050304584613E-05
              -1.5388059278900732E-03
               8.3007531890954601E-04
              -8.1469817747730020E-05
               3.6296799273332199E-04
              -8.6451391339196484E-04
               9.0111678333393600E-04
               1.9798759435200909E-03
              -3.1588259223448007E-04
               9.6248396104956359E-04
               5.3144999483722716E-04
               1.3023393183349228E-05
               4.4200590511348631E-05
               8.7423853843392207E-04
              -9.2820440028999448E-04
              -3.8668311579535159E-05
               6.9058570212955021E-04
              -1.1096139320566686E-03
               4.3802498565251682E-04
               7.6647002634892602E-05
              -4.2371326856308555E-04
               1.9935788135426623E-05
               1.7412974407454831E-04
               1.4390011251071118E-03
              -8.7037740860135206E-04
               1.3620935013500401E-04
              -6.5864263131012362E-04
              -1.3065370341857382E-03
               5.3278347329669318E-04
              -2.8929456738974781E-04
              -1.7776343596236012E-03
              -4.5936883007941014E-04
              -7.8465906309506872E-04
               1.8214870811536425E-03
               6.0558765687428098E-04
              -2.8278251376286773E-05
               2.7698204254987806E-04
               1.1266926247637061E-04
              -3.8883188643160148E-04
               5.5169124449023707E-04
               4.4368510953646023E-04
               5.7227113649879725E-04
               1.5558115843272702E-04
              -2.8457632511327244E-04
               6.0266436010163855E-04
               8.6812041509483156E-05
               3.1979303452328123E-04
              -4.3957465597039912E-05
              -7.8524470284352550E-04
               1.4676219441838001E-04
              -1.5871717257923075E-04
              -6.3745875924423008E-05
              -4.9550084465130870E-04
               2.8797564302489455E-04
               7.0116489985397790E-04
               1.0650784046014786E-04
              -1.2796118619107036E-03
               3.3221649033538371E-04
              -1.9271452866871574E-03
               6.3166136742896870E-05
              -6.5407151440058137E-04
              -5.4866143796068571E-04
              -2.1598814994170992E-05
              -3.2015356062141962E-04
              -1.4554222341836521E-03
               1.2964067819310806E-03
               9.2725043573472349E-05
               9.0578937580135374E-04
               5.7245565654101950E-04
              -7.1367631034711682E-04
               5.4378140242384090E-04
               3.0685652324204560E-04
               1.2702820982960145E-03
              -4.0861891211348291E-05
              -3.8938156271825015E-04
               7.4879998474051024E-05
              -7.0696582894397503E-04
               8.1066964544108380E-04
              -3.1811961296585679E-04
               3.8484543215285699E-04
               3.9678786757758373E-04
               4.3204780204219928E-04
               1.1780714088843925E-04
               1.6553439223393701E-04
              -6.9934693225226464E-04
              -6.4654029350642394E-04
               1.1544336416017177E-05
              -4.4870123040445509E-04
              -1.1781405414070863E-03
              -2.9952720289353661E-04
               2.1304286947881437E-04
               3.1318404867738736E-04
              -3.1535303001095118E-04
               6.4237929838713379E-04
              -4.8538693450660066E-04
              -7.8863545745396039E-05
              -8.1340894368629659E-04
              -5.7368917000319040E-04
               6.2168492718507758E-04
               6.7641033756551732E-04
               2.8142846668053473E-05
              -2.2149015425076100E-05
              -3.5969533733128058E-04
              -8.6857761466332126E-05
              -1.0077844962429775E-03
               3.0544461146572651E-04
              -2.3042525054688132E-03
               1.0287226125875180E-03
               2.6760425661876357E-04
              -2.9459177025496227E-04
               2.4508806220578726E-03
              -1.6936414731783217E-04
               1.0956650569161623E-03
               1.3379302328514146E-03
              -2.2656349243569290E-03
              -6.7882612504853738E-04
               5.3237977514371195E-04
              -1.6955718145654562E-03
               2.7888703746129531E-04
               1.3670945321440345E-04
              -2.8909955877916635E-04
               9.1306577233224244E-04
               1.0596979100107783E-04
               8.2257876286861162E-04
               7.5606332064403949E-04
               1.1097341961219161E-04
               6.2192916135300215E-04
               1.2448508049917484E-03
              -4.2187987316368524E-04
              -5.0927898681326191E-04
               7.5160696975711655E-04
              -1.4172862442189342E-03
               1.1294277368135244E-03
              -1.0474985020911720E-03
               6.5074180316046504E-04
              -7.5842576602118614E-05
              -1.6604908449235338E-03
              -2.9702429361262508E-03
               5.7405023241076478E-04
               6.1328355876782384E-04
              -1.2884112293817156E-06
               6.0705988685139361E-04
               2.8167173651267045E-04
               1.5583001232577197E-03
               1.8087744530536566E-03
              -1.9291084573383027E-04
               2.8125821416991200E-04
              -4.7626970676946552E-04
              -7.3294544596491933E-05
               2.7844333585127194E-04
               1.0615912353768226E-03
              -2.6479978479106424E-04
               3.7407466856306581E-04
              -6.1750512987936883E-04
              -5.7458565764491020E-05
              -5.9013982600586358E-05
               1.1119810384529601E-04
               3.2653470543295561E-04
              -3.0583425728351009E-04
               1.0983408608685034E-03
               2.1652024693520904E-04
               5.9925671347446749E-04
               4.4583868536396360E-04
              -5.1832583120507502E-05
              -5.2286803159384621E-05
              -1.3392611853977785E-04
              -8.9107452010619986E-06
               2.9071928690366656E-04
               1.0906956014151094E-03
               1.8822196835757392E-04
              -4.4956252819345184E-04
              -4.5204266945152237E-04
               7.2603739803772749E-05
               4.9290253268801591E-04
               3.3039653596005753E-04
              -1.1507018488915756E-03
              -4.6754135062714586E-05
              -3.3590934338943517E-05
              -6.1611643560562058E-04
               4.1479368243748618E-05
              -1.7322309993653332E-04
              -2.7223999902896233E-04
              -1.3712365696348869E-03
               6.4117795534359638E-04
               1.9616069008054107E-04
              -6.8301747020309300E-04
              -4.6758180849705534E-05
              -1.6087472719962660E-03
              -1.3559890088417159E-03
              -1.4311219729578735E-05
               1.5791057358619399E-06
               6.3212916031058267E-04
               7.2849361538564075E-04
              -1.0045954676180926E-04
              -1.0586373417539546E-03
               1.1220043477202226E-03
              -7.7054703253946755E-04
              -4.7351577557614842E-04
               2.2677126650898685E-05
              -8.1697227440652399E-05
               1.7979662461575465E-04
               9.1565359951291468E-04
               3.5108952257960699E-04
              -1.4308879912279927E-03
               3.9496665731820688E-04
               8.8421313579688048E-04
               3.2486986532922698E-04
              -1.0388448534679500E-05
               5.0910446589117646E-04
               9.8373495616408606E-05
               2.3725399735876530E-04
              -4.5546853806042347E-05
              -5.3462995475848257E-04
               3.3053772611809315E-03
               2.9105650022528360E-04
              -2.1240619793605866E-04
               1.4169060001597263E-03
              -5.2471318902232633E-04
               5.4589068173280166E-04
               9.5381153414219547E-04
               1.0346277015231080E-03
               6.4825072689926578E-04
               6.3162599848425266E-04
               1.1522519750124089E-04
              -1.5379141440273556E-04
              -6.0212964430070672E-04
               2.8083182646645609E-04
              -3.6868592676762987E-04
               1.0607743530124691E-03
              -4.9518949244681156E-04
               4.4213416924206628E-04
              -2.2498361879584945E-03
               5.2000533826411705E-04
              -2.4149062087975551E-04
               1.0011533708926511E-03
              -2.7964108719101847E-04
               3.8764823470111920E-05
               1.6193706216605182E-03
               1.4937071561411109E-04
              -2.7133120474665752E-05
              -6.6426027790878026E-04
              -3.8007329886220260E-04
               5.6946827848963896E-04
               1.6185736358830028E-03
               2.1396288684259521E-04
               1.0469899842577648E-03
               1.8001801837339373E-04
              -4.1097722454107332E-04
              -3.6136553276210358E-04
              -3.9768876313150226E-04
               1.2588497601736157E-04
               1.0782779032716695E-04
               4.9678479805633878E-05
              -7.7556437991501873E-05
              -2.9798256064708986E-04
              -1.8468641177142071E-04
              -6.8860265945994777E-04
               4.7177263709781794E-05
               7.7603668695089810E-04
               7.3735434643614948E-05
              -2.7153005731747962E-04
              -2.1849487062159686E-04
               2.8412294896460166E-04
              -4.1662583182768177E-04
              -6.2732193184530049E-04
              -4.0675606271112089E-06
               3.4429706985091458E-04
              -5.4487815751892531E-05
              -6.0741976440793110E-05
              -8.8846589827179414E-04
              -8.1429522903112863E-04
               4.8189609039135683E-04
              -2.0948383245440196E-04
               3.3857850618697729E-04
              -7.0855608516265749E-05
              -2.7038919620736308E-04
              -2.1662213613474466E-03
               2.3214307913081115E-04
               4.2071955929424726E-05
               8.0983744805644567E-04
               5.7307104257518185E-04
               1.9102651501821575E-05
               2.0903112003937152E-04
              -2.5177546829372604E-04
              -2.8626836772807906E-04
               2.2933508104014172E-04
               8.2024880800580808E-04
               4.4308534162379839E-06
              -7.7099026394806093E-04
               6.2539542124816769E-04
               1.0292681159634908E-04
               7.4597567025465187E-04
               7.4518371535189638E-04
              -4.9736137629981139E-04
              -7.5932280834866371E-04
              -7.7194485276079535E-04
              -7.5745936471556877E-04
               1.1431229611245390E-03
               1.9422569975717437E-04
               2.1401852012914457E-04
              -1.4144324352403357E-03
              -1.2592999696162204E-03
               9.5598374777985994E-04
               4.5011730865219694E-04
               9.3451873604469767E-05
              -3.2965108962631351E-05
               2.7732900292755142E-04
              -3.7951388752229806E-05
               9.9345668058539878E-04
              -3.0984895111689617E-04
               8.3540180414867185E-05
               3.5162828703831129E-04
               3.4909222322984494E-04
               3.5884058971237808E-04
               1.2595458958469562E-03
               3.8060405821491048E-05
              -5.0843449678586743E-04
              -1.7057062525193361E-03
              -1.3109187668842765E-04
               6.7438445883055253E-04
              -9.9141146876018343E-04
               3.3509089499724577E-04
              -2.2847083997052417E-04
              -9.9630629675693258E-04
              -7.5419851760632648E-04
               2.0062670314663191E-03
               9.1925409020668196E-03
               2.0401821863787585E-03
               2.4236705977396026E-04
               9.7040606472106612E-04
               1.4880634673751336E-02
              -4.1343656897195635E-04
               6.2741076480009143E-04
               5.2108357138817658E-03
               2.1171256766442433E-03
               2.5344133350848441E-03
               2.8368058569568289E-04
              -1.5833549494359409E-04
              -1.3756773270763334E-04
              -3.5214608490489541E-04
              -5.1898658576275290E-04
              -1.4542822786616687E-04
              -1.7537901143123468E-03
               2.9374760099404242E-04
               1.8005398160205232E-03
              -2.4429992558290157E-04
               2.1051844747538019E-05
               1.4013620761253243E-04
               3.0550400010759558E-04
               9.3918186533938444E-04
               4.1292912480803037E-04
               6.6573178115737200E-04
              -8.8224509884579465E-04
               1.1290214230221935E-03
              -5.4461403147640244E-04
              -9.5420630139187346E-04
              -9.3139494582819134E-05
              -2.2729905794100560E-04
              -4.9756536845742131E-04
              -2.0072777481166518E-04
              -1.5849007219701655E-03
              -1.3144094712503394E-03
              -1.5581424215495821E-03
              -3.8154732356686513E-04
              -1.2051122330224255E-03
              -7.9337566908517032E-04
              -3.8027735119840563E-04
               4.2519147893420577E-04
              -5.8982693532669121E-04
               8.5383233258856726E-04
              -8.9785631969574822E-04
               4.0523765638330044E-05
               2.7306943791815012E-04
               6.6549059762447131E-04
               2.9416211878065051E-05
               6.3023455295371604E-05
               1.2217635174202551E-03
              -1.7543725794346766E-04
              -5.2645502555044137E-05
               6.4821295868879307E-04
               3.3114563427669207E-04
               1.9156181277289249E-03
               2.4796460223834447E-04
               1.4394581040643234E-03
               8.0182153135461990E-04
              -1.9812655452477220E-04
               1.2394071375615465E-03
              -3.4279099966437335E-04
              -1.0136332149515174E-03
               2.1989224738480135E-04
               3.8158385295290314E-04
               2.6907391614773199E-04
              -3.2567665418381183E-04
               1.4654876291802707E-03
               3.0556701508241304E-05
              -1.4874422585965945E-04
              -3.2529494231441200E-04
               8.1344198126000720E-04
               1.0091536243631123E-03
              -1.8077345096425986E-03
              -1.5581727519137093E-04
               1.2222197506552772E-04
              -1.7687911545483407E-03
              -1.7321800101428950E-04
               4.8154140411741980E-05
              -1.8657798214147343E-04
              -1.2031473419764409E-04
              -6.3312858764388315E-04
               1.3705068305000002E-04
              -6.6272813046127960E-04
              -1.7929276623179189E-04
               7.4180232598337870E-04
              -7.5586183924262931E-04
               2.8972469283008496E-04
               9.5397481635139155E-04
              -3.8538757659283392E-04
              -1.1857225757543172E-03
               5.8139495144550896E-05
               1.1421877957623404E-03
               3.5562920206083144E-04
               1.2858693451954354E-04
              -1.1823730014173877E-03
               4.8847856352580413E-04
               7.6352243511979109E-04
              -1.1470853772236091E-03
               5.4123916229982600E-05
               5.9019888887957455E-04
               9.9076382841603952E-04
               2.2259770304878181E-04
               1.4244544285192226E-03
               7.9769639663473179E-05
               8.8165252196258895E-04
              -4.1588710149437523E-04
               8.1478450179796758E-04
               3.5620484436078140E-05
               1.7730252625020813E-04
               1.1558776561816696E-05
               4.8716925048973354E-05
               2.0408714836674184E-04
               4.0719242029186811E-04
               2.4585499446878802E-05
               6.8731153004049334E-05
              -3.0972736330892058E-04
               1.3756471797498644E-04
              -1.5502912645747491E-04
              -7.0991423629487838E-05
              -6.4131804893579616E-05
               1.7269030250223829E-04
              -2.4366413134227477E-04
               3.4986769575698817E-04
               1.8253364107909177E-03
              -6.3121910708262611E-04
              -1.0122660050918214E-03
              -2.7266326704921637E-04
              -1.9283682955016201E-04
              -1.1663646658903267E-04
              -1.0226482165361643E-03
               7.6948230993877207E-04
              -1.4707830719229062E-04
               2.8471660331921417E-03
              -2.7437834885681337E-04
               1.7255769521582994E-04
               2.5075816805500114E-04
              -1.1498251273820503E-04
               1.1864857072361804E-03
               7.9102353066534496E-04
              -6.0623211630071987E-04
              -6.2232177259628654E-04
              -5.2617957877143713E-04
               4.7971506610322063E-04
               4.7546955680770564E-04
              -5.8658992539547899E-04
               4.4242931013329832E-04
               8.4977974644907274E-04
               1.9511468520486911E-04
              -7.5882330397463718E-05
              -3.4866990711079936E-04
               1.0597200095056455E-03
              -8.3005452685321624E-05
               2.4778678641813754E-04
         &END THERMOSTAT_ENERGY
         &RNG_INIT
Wiener process for Thermostat # 1        1 F T T   8.8213421988833252E-02        1816948138.0        1579889206.0        2619535572.0           8705399.0        3665118610.0        3605094487.0             12345.0             12345.0             12345.0             12345.0             12345.0             12345.0             12345.0             12345.0             12345.0             12345.0             12345.0             12345.0
Wiener process for Thermostat # 2        1 F T T   7.6808471627877883E-01        3133532235.0        2369798640.0        2883801773.0        2151359076.0        2912320912.0        3900541967.0        3692455944.0        1366884236.0        2968912127.0         335948734.0        4161675175.0         475798818.0        3692455944.0        1366884236.0        2968912127.0         335948734.0        4161675175.0         475798818.0
Wiener process for Thermostat # 3        1 F T T  -1.4030544629947141E+00         264857388.0         241783879.0        1593215362.0        3270627041.0        3633239677.0        3256108593.0        1015873554.0        1310354410.0        2249465273.0         994084013.0        2912484720.0        3876682925.0        1015873554.0        1310354410.0        2249465273.0         994084013.0        2912484720.0        3876682925.0
Wiener process for Thermostat # 4        1 F T T  -6.0185493001117663E-01        1801428101.0        1124130626.0          61528110.0        1782879520.0         898699251.0        3239817573.0        2338701263.0        1119171942.0        2570676563.0         317077452.0        3194180850.0         618832124.0        2338701263.0        1119171942.0        2570676563.0         317077452.0        3194180850.0         618832124.0
Wiener process for Thermostat # 5        1 F T T   1.2461354282364623E+00        1821586058.0        4022965872.0        4230723066.0        3169325687.0        1474797718.0         641464644.0        1597262096.0        3906379055.0        3312112953.0        1016013135.0        4099474108.0         275305423.0        1597262096.0        3906379055.0        3312112953.0        1016013135.0        4099474108.0         275305423.0
Wiener process for Thermostat # 6        1 F T T   6.1974260802538783E-01        2332289043.0        2692129238.0         529651201.0        2551698113.0        4122935416.0         714562844.0          97147054.0        3131372450.0         829345164.0        3691032523.0        3006063034.0        4259826321.0          97147054.0        3131372450.0         829345164.0        3691032523.0        3006063034.0        4259826321.0
Wiener process for Thermostat # 7        1 F T T   8.4714173456967412E-01        3296706772.0         674212033.0         905509243.0        1251685540.0        1135955168.0         519350768.0         796079799.0        2105258207.0         955365076.0        2923159030.0        4116632677.0        3067683584.0         796079799.0        2105258207.0         955365076.0        2923159030.0        4116632677.0        3067683584.0
Wiener process for Thermostat # 8        1 F T T  -1.6168716082793915E+00        1399815759.0        3513933040.0        1888057221.0        2186764866.0        2458226201.0         551552263.0        3281794178.0        2616230133.0        1457051261.0        2762791137.0        2480527362.0        2282316169.0        3281794178.0        2616230133.0        1457051261.0        2762791137.0        2480527362.0        2282316169.0
Wiener process for Thermostat # 9        1 F T T  -1.2453687151038284E+00        2493295462.0        3373282082.0        3840865562.0        1808354420.0        2111069677.0          30708909.0        3777646647.0        1837464056.0        4204654757.0         664239048.0        4190510072.0        2959195122.0        3777646647.0        1837464056.0        4204654757.0         664239048.0        4190510072.0        2959195122.0
Wiener process for Thermostat # 10       1 F T T   3.3898055984467623E-01        4115940886.0        2462883946.0         671648060.0        3072238480.0        3602190263.0        2455578473.0        4215590817.0        3862461878.0        1087200967.0        1544910132.0         936383720.0        1611370123.0        4215590817.0        3862461878.0        1087200967.0        1544910132.0         936383720.0        1611370123.0
Wiener process for Thermostat # 11       1 F T T   4.0527019327442693E-01        3319649636.0        2182631431.0        2379652973.0        3782272717.0        2945298329.0        2884378968.0        1683636369.0         362165168.0         814316280.0         869382050.0         980203903.0        2062101717.0        1683636369.0         362165168.0         814316280.0         869382050.0         980203903.0        2062101717.0
Wiener process for Thermostat # 12       1 F T T   8.6944661390457512E-01         547973121.0        3809830233.0        3212970303.0        2554285365.0        1043144026.0         445089560.0         272317999.0         166758548.0         310112982.0         201045826.0        1680231254.0         118290799.0         272317999.0         166758548.0         310112982.0         201045826.0        1680231254.0         118290799.0
Wiener process for Thermostat # 13       1 F T T  -8.2541005905419385E-01        3108916314.0        1347278900.0         816694096.0        2863343016.0         907563834.0         812030784.0        2245755202.0        1652682525.0        2865544364.0         721509566.0         209733568.0         592362218.0        2245755202.0        1652682525.0        2865544364.0         721509566.0         209733568.0         592362218.0